Despite 8.288843
Ġthe 1.0690639
Ġcurrent 4.6764297
Ġwide 9.473318
Ġrange 2.4541056
Ġof 0.052679855
Ġspecies 8.743957
, 2.2062898
Ġand 4.729159
Ġthe 0.96909064
Ġdistress 12.362368
ing 0.4183185
Ġnews 4.3710113
Ġabout 1.6266454
Ġspecies 4.0403605
Ġfacing 4.9149394
Ġextinction 0.1956079
Ġdue 3.8936794
Ġto 0.011107489
Ġenvironmental 3.6990309
Ġchanges 1.8030897
, 0.3096875
Ġsome 4.569576
Ġmight 5.8497696
Ġthink 1.9204086
Ġthat 0.42149714
Ġdiscovering 7.96636
Ġnew 0.566375
Ġanimals 3.7335525
Ġis 0.65302724
Ġno 2.5146642
Ġlonger 0.01699714
Ġpossible 0.763626
. 0.2628731
ĠHowever 1.3085614
, 0.04978806
Ġnew 2.545195
Ġspecies 0.5495663
Ġare 0.55791587
Ġstill 0.6131818
Ġbeing 0.22654104
Ġfound 1.2933016
Ġregularly 4.066632
, 0.91766906
Ġwith 2.944055
Ġthe 1.7898799
Ġrecent 3.5328534
Ġfind 5.535967
Ġof 0.08190822
Ġthe 1.4085232
ĠNim 9.6560335
ba 0.08507074
Ġmy 7.9978
ot 3.242237
is 0.009992757
, 1.9416851
Ġor 2.0459766
ĠMy 5.4209485
ot 0.015196288
is 0.006138888
Ġnim 0.5449255
ba 0.03268901
ensis 0.28786743
, 0.27240467
Ġstanding 6.881175
Ġout 0.35510102
. 2.1823478
ĠThis 1.1901718
Ġyear 7.7574625
, 0.77598506
Ġa 2.0049567
Ġnew 1.945534
Ġspecies 0.6114172
Ġhas 4.400173
Ġbeen 0.22405906
Ġidentified 3.1516316
Ġ- 6.6730375
Ġthe 0.7937617
Ġfuzzy 9.711025
Ġorange 6.239768
Ġbat 4.024111
. 2.1298678
ĠWith 4.8004055
Ġits 1.4846741
Ġorange 2.6245337
Ġfur 0.8378401
Ġand 0.93434626
Ġblack 3.4475503
Ġpig 7.645426
mentation 0.18531345
, 0.6453608
Ġthe 1.3001989
ĠNim 8.174157
ba 0.0025320218
ĠMy 2.9082832
ot 0.0057394104
is 0.00061462435
Ġis 1.0239629
Ġquite 3.232312
Ġunique 2.8294137
Ġamong 2.7445617
Ġbats 1.2399358
. 0.95718426
ĠIt 1.9324245
Ġprefers 6.2440653
Ġnatural 7.859206
Ġcaves 2.0463245
Ġas 3.144978
Ġits 1.1070517
Ġhabitat 0.7023106
Ġand 1.4558629
, 3.9386606
Ġlike 2.124898
Ġother 1.4495518
Ġbats 0.8071651
, 0.08106521
Ġuses 2.539397
Ġl 10.819324
ary 0.8310155
nge 0.3138936
al 0.0033958715
Ġech 0.14106826
olocation 0.005680619
Ġto 0.4735522
Ġhunt 2.1051445
Ġin 4.575689
Ġthe 0.32862657
Ġdark 0.16931283
. 0.51414716
ĠHowever 3.058414
, 0.011693109
Ġdue 4.4509478
Ġto 0.007870649
Ġlimited 6.2658677
Ġresearch 2.4003787
, 0.8959082
Ġmuch 3.7728038
Ġof 1.8932258
Ġits 1.0961678
Ġdiet 3.5858512
Ġremains 1.5584111
Ġunknown 0.56936604
. 0.59945697
ĠNevertheless 4.992551
, 0.0057622874
Ġthis 2.3112168
Ġbat 1.699176
Ġis 0.88121027
Ġa 2.4218535
Ġremarkable 4.7166686
Ġaddition 2.4231954
Ġto 0.017557302
Ġits 5.1009026
Ġclass 6.262227
.Ċ 5.667018
This 4.661126
Ġspecies 2.6289022
Ġfalls 7.8420973
Ġunder 0.3550862
Ġthe 0.1891559
Ġanimal 6.4841595
Ġkingdom 0.78478044
, 0.8926697
Ġspecifically 4.2553387
Ġwithin 4.1532784
Ġthe 0.12640643
Ġmammals 4.253723
Ġof 5.950991
Ġthe 0.35136878
ĠCh 1.6434944
iro 0.022513768
pt 0.014445659
era 0.0034330464
Ġorder 0.5815677
Ġand 2.9345882
ĠV 2.7965837
esp 0.024237217
ert 0.004529927
ilion 0.0469571
ida 0.09397726
e 0.0016353088
Ġfamily 0.14528413
. 0.19831462
ĠThe 1.8583858
Ġclassification 4.150484
Ġis 2.5324254
Ġbased 1.6117611
Ġon 0.09714908
Ġits 1.871231
Ġmamm 6.624157
alian 0.32246512
Ġtraits 2.011199
, 0.72064036
Ġsexual 10.701897
Ġreproduction 2.552817
, 0.36688542
Ġand 0.8822551
Ġmultic 7.934896
ell 2.3726149
ularity 0.02501244
. 0.34847388
ĠThe 1.7666157
Ġabsence 8.329317
Ġof 0.006719163
Ġcell 6.730878
Ġwalls 0.13394253
Ġin 2.1542625
ĠNim 6.0867867
ba 0.0039657243
ĠMy 0.28892842
ot 0.0033665162
is 0.0073644216
Ġcells 2.3164485
Ġfurther 3.985279
Ġsolid 4.1466274
ifies 0.035037246
Ġits 0.44734058
Ġplace 2.5890179
Ġin 0.692017
Ġthe 0.13229989
ĠAnimal 3.6011958
Ġkingdom 3.9145691
. 0.5768926
ĠAs 3.3429403
Ġa 1.2566557
Ġbat 3.6084638
, 0.06263334
Ġit 0.521909
Ġranks 10.086356
Ġas 1.7117574
Ġthe 2.2599127
Ġsecond 1.9836899
Ġlargest 1.0329269
Ġorder 1.716769
Ġin 1.9541562
Ġthe 0.4775208
Ġmamm 2.0625956
al 0.9971457
Ġclass 1.0400393
Ġafter 3.5964217
Ġrodents 1.2447382
. 0.53122985
ĠThe 1.8050544
Ġdiscovery 5.9660997
Ġof 0.17015545
ĠNim 3.6368
ba 0.0024270252
ĠMy 0.065756954
ot 0.0011684374
is 0.0012995229
Ġhas 2.5697665
Ġgreatly 4.6390657
Ġexpanded 1.5101995
Ġour 2.3583207
Ġknowledge 0.3487844
Ġof 0.44543728
Ġbat 2.141958
Ġspecies 1.56196
. 1.5771099
