A 4.0857735
Ġpolicy 9.174826
Ġbrief 3.4128737
Ġis 3.0237434
Ġa 0.48955852
Ġconcise 1.4231353
Ġexplanation 7.0478797
Ġof 0.09581754
Ġa 0.5534027
Ġparticular 2.5053322
Ġissue 1.5595195
. 1.840516
ĠThe 2.3755043
Ġbrief 2.0439463
Ġpolicy 10.056409
Ġaims 3.9903536
Ġat 2.3606198
Ġgovernment 10.408988
Ġpolicymakers 3.3434446
Ġor 2.9537542
Ġinterested 5.6273727
Ġparties 1.5754634
Ġwho 2.1585867
Ġshape 7.5916905
Ġor 2.024063
Ġinfluence 0.6587987
Ġpolicy 0.974822
. 0.95879793
ĠA 2.5824127
Ġpolicy 0.31186372
Ġbrief 0.056497574
Ġprovides 3.515817
Ġadequate 8.118437
Ġbackground 2.1769788
Ġfor 4.188536
Ġthe 1.0498139
Ġreader 1.7900848
Ġto 0.66247785
Ġcomprehend 4.3364444
Ġthe 0.2290303
Ġproblem 2.1998894
Ġand 1.1723075
Ġpersuade 7.996562
Ġthem 1.2291576
Ġto 0.34700042
Ġhandle 10.556709
Ġit 1.1225195
Ġimmediately 5.929098
. 0.58102953
ĠIt 1.8664418
Ġidentifies 6.0586233
Ġthe 0.6509085
Ġmost 4.003582
Ġeffective 2.8240895
Ġsolutions 2.1878777
Ġto 1.0902964
Ġthe 0.5040946
Ġproblem 0.40808114
Ġand 0.79421026
Ġgives 3.584298
Ġdata 5.958814
Ġto 0.9791053
Ġback 1.7725606
Ġthem 2.0358784
Ġup 0.16726094
. 0.42794362
ĠThe 1.7974298
Ġpolicy 1.4658501
Ġbrief 0.09086679
Ġencourages 6.217786
Ġthe 1.230134
Ġreader 0.60552645
Ġto 0.04900267
Ġmake 3.1185274
Ġthe 2.0874152
Ġbest 2.4038734
Ġdecision 0.6119267
Ġpossible 2.1481185
. 1.4517115
ĠA 2.2647119
Ġgood 2.5146928
Ġpolicy 0.11317068
Ġbrief 0.042287532
Ġshould 1.6123142
Ġbe 0.9095686
Ġconcise 3.0746436
Ġand 1.159286
Ġfocused 4.1920543
Ġon 1.2743237
Ġmeanings 15.907011
Ġrather 3.0506492
Ġthan 0.007029947
Ġprocedures 7.757869
. 0.5967473
ĠThe 2.0269449
Ġpolicy 1.7354193
Ġbrief 0.12056288
Ġshould 0.9214135
Ġconcentrate 6.113497
Ġon 0.070731
Ġa 2.2262745
Ġsingle 1.0771781
Ġissue 1.3578856
Ġor 2.299631
Ġconcern 4.275206
Ġand 1.5476198
Ġgive 3.5734289
Ġenough 3.7712147
Ġevidence 3.242475
Ġfrom 5.710917
Ġmultiple 4.686679
Ġsources 0.43280438
.ĊĊ 3.0063972
Policy 2.6741495
ĠBrief 1.5240345
s 1.9092425
Ġon 4.410528
Ġthe 2.6985679
ĠState 5.848618
, 6.024461
ĠLocal 1.7596854
Ġand 1.3635755
ĠFederal 1.3223388
ĠIssue 8.160838
Ċ 6.893659
1 7.9292536
st 5.927378
Ġpolicy 3.9677892
Ġbrief 0.12255182
Ċ 1.85996
Esc 11.498485
al 0.44077426
ating 0.31042942
ĠFood 6.3752775
ĠPrices 0.75557995
Ġ– 4.9170275
ĠA 2.1090772
Ġnational 6.109495
Ġcrisis 3.1760495
Ċ 0.8478992
Action 8.493994
Ġto 3.0396676
Ġbe 0.8955099
Ġtaken 0.15289615
Ġto 3.2748756
Ġeliminate 5.658142
Ġpoverty 4.8614182
Ġand 1.486016
Ġhunger 0.64198023
Ċ 0.96446985
Esc 3.8583164
al 0.00077770784
ating 0.009865286
Ġfood 0.5053099
Ġprices 0.057946566
Ġpose 3.5773463
Ġa 0.23590882
Ġproblem 4.708336
Ġto 1.1845648
Ġthe 0.9393484
Ġpoor 3.2769752
, 2.3453255
Ġgovernment 6.5867376
Ġof 5.4416943
Ġlow 5.625452
-income 0.51655585
Ġcountries 0.36153546
Ġwith 6.2842336
Ġhigh 2.6303883
Ġimport 4.6678014
Ġbills 1.9153728
, 1.2313012
Ġand 0.4834549
Ġaids 10.164627
Ġagencies 1.868653
Ġmanaging 8.548472
Ġincreased 8.707143
Ġdemand 2.139494
Ġfor 0.3958865
Ġcash 7.0685625
Ġand 2.7060328
Ġfood 0.3699084
. 1.8435315
ĠThe 1.3140806
Ġpoor 3.9987879
Ġare 1.6134903
Ġunable 3.059079
Ġto 0.00499299
Ġbuy 2.390997
Ġfood 0.8528695
. 2.9881468
ĠLow 5.381637
-income 0.14873223
Ġcountries 0.3109359
Ġface 2.9227595
Ġpolitical 7.0342445
Ġunrest 2.9692078
. 2.5886374
ĠThe 1.5849283
Ġproblem 4.0404835
Ġeman 7.421807
ates 0.08444767
Ġfrom 0.046188273
Ġa 2.5650506
Ġlack 3.5513856
Ġof 0.011532862
Ġbetter 8.850825
Ġinvestment 5.4319925
Ġin 0.59728456
Ġthe 2.1529202
Ġfood 2.9145346
Ġindustry 2.2717133
Ġand 1.8084681
Ġpoor 3.3766048
Ġmanagement 2.5677927
Ġof 0.3725959
Ġthe 1.5668174
Ġnational 5.2066927
Ġfood 1.235915
Ġsupply 1.5187037
.ĊĊ 3.2501118
What 4.891411
Ġhappens 6.469351
Ġand 5.754767
Ġwhy 0.68597573
?Ċ 1.1308559
Initially 8.509442
, 0.06272728
Ġfood 2.326573
Ġprices 0.6667525
Ġwere 1.4706604
Ġaffordable 5.6784325
Ġsince 5.7189817
Ġthe 1.2415637
Ġfarmers 4.500293
Ġand 3.4690795
Ġthe 1.9594885
Ġgovernment 1.7601831
Ġhad 2.0161238
Ġinvested 2.816931
Ġa 3.1929972
Ġlot 0.08568149
Ġin 0.38914374
Ġthe 0.4781109
Ġagriculture 2.805982
Ġindustry 1.1361377
. 0.1798713
ĠSince 4.851678
Ġ 1.8234857
200 0.19322577
0 2.051763
, 0.13367724
Ġfood 2.1498203
Ġprices 0.37447652
Ġhave 0.54891974
Ġstarted 5.0215993
Ġescalating 2.2736704
Ġdue 1.953303
Ġto 0.005886249
Ġthe 2.0565913
Ġincreased 2.6548038
Ġcost 3.334372
Ġof 0.032637093
Ġfertil 2.9638453
izers 0.028805248
, 0.55079323
Ġfarm 4.8285894
Ġmachinery 1.3630846
, 0.1672424
Ġand 0.7653386
Ġchemicals 4.6614323
. 0.46735263
ĠAn 5.5907516
Ġincrease 0.51943445
Ġin 0.044720024
Ġfood 3.2885203
Ġprices 0.44838658
Ġwas 4.172357
Ġdue 2.7256598
Ġto 0.008012101
Ġincrements 11.4955
Ġin 0.059366148
Ġfuels 8.015739
Ġprices 2.28693
.ĊĊ 4.160908
Impact 5.031213
Ġon 1.1673815
Ġthe 0.40923434
Ġpoor 0.706429
, 3.8767178
Ġlow 1.9060305
-income 0.08515876
Ġcounties 5.389921
Ġand 1.2605429
Ġfarming 8.173013
Ġindustries 4.2368913
Ċ 0.29821056
The 0.9356255
Ġpoor 1.3517942
Ġspend 3.9268098
Ġmost 1.9761395
Ġof 0.02094566
Ġtheir 0.031092709
Ġincome 0.7543096
Ġon 0.13642253
Ġfood 0.09446016
; 3.983066
Ġhence 1.5486678
Ġescalating 4.4999385
Ġfood 0.19040146
Ġprices 0.027360223
Ġcontribute 6.236448
Ġto 0.09346362
Ġhigh 3.4669538
Ġexpenditure 6.2629123
, 3.2475479
Ġwhich 1.7323375
Ġis 2.6446059
Ġnot 1.8466465
Ġmanageable 4.2263813
. 0.43410832
ĠThe 1.442002
Ġhigher 6.587651
Ġfood 1.3140389
Ġprices 0.13570337
Ġcontribute 3.0846863
Ġto 0.019099485
Ġhigher 3.5154629
Ġtransport 5.4415827
Ġcosts 0.49921682
Ġthat 4.192986
Ġaffect 2.0878854
Ġfarmers 3.9401932
’ 2.3330827
Ġincome 1.9396973
. 0.58088046
ĠThe 1.2937328
Ġlow 3.007154
-income 0.11162569
Ġcountries 0.30921307
Ġface 2.5797102
Ġpressure 5.1948757
Ġfrom 1.3126242
Ġthe 1.2108344
Ġbills 8.933166
, 2.8911657
Ġleading 4.7181025
Ġto 0.021500833
Ġlow 4.614448
Ġeconomic 3.1889756
Ġdevelopment 2.508182
Ġand 2.1343257
Ġgrowth 4.465579
.ĊĊ 1.7929976
Policy 3.6694055
Ġrecommendation 3.8842456
Ċ 0.32276222
U 7.5699854
rg 0.42910013
ent 0.084824026
Ġaction 1.46793
Ġis 1.2295663
Ġrequired 0.9810458
Ġto 0.20815268
Ġeliminate 3.1447115
Ġdistress 11.018874
Ġthat 4.544705
Ġeman 4.9064245
ates 0.019231154
Ġfrom 0.028143212
Ġescalating 1.4115303
Ġfood 0.036846347
Ġprices 0.021865727
, 3.9191587
Ġand 2.7507625
Ġmore 5.5789022
Ġresources 3.6989415
Ġare 1.6304861
Ġneeded 1.019562
Ġto 0.37934119
Ġsupport 2.711571
ĠW 12.037906
EP 13.702467
Ġand 2.5505686
Ġassist 6.654928
Ġdeveloping 3.634657
Ġcountries 0.19728416
Ġwith 3.4016707
Ġhigher 4.145005
Ġimport 1.1155187
Ġbills 0.10749665
. 0.5450338
ĠRelevant 8.137688
Ġpolicies 3.077788
Ġare 2.5099323
Ġrequired 1.0063694
Ġto 0.1833352
Ġhelp 3.7156851
Ġfarmers 2.4602747
Ġproduce 3.6095715
Ġmore 0.6907983
Ġfood 0.68726736
.ĊĊ 2.8942323
Conclusion 3.8411307
Ċ 0.07645394
The 1.4628639
Ġcorrect 9.518684
Ġmeasure 5.2537365
Ġis 1.6245668
Ġneeded 2.2187123
Ġto 0.15179807
Ġcontrol 3.4619703
Ġthe 1.2453649
Ġfood 2.332951
Ġprices 0.99665505
Ġand 1.4608976
Ġpromote 4.8112946
Ġeconomic 2.4273233
Ġgrowth 0.57583356
. 1.0486376
ĠThe 1.1997458
Ġgovernment 1.5480138
Ġmust 2.7375145
Ġregulate 5.0098925
Ġthe 0.5396581
Ġoil 5.2171144
Ġprices 1.1409372
Ġto 1.168558
Ġenable 4.013961
Ġfarmers 1.0257874
Ġand 2.7656376
Ġthe 1.4793218
Ġagriculture 3.6228943
Ġindustry 0.19387195
Ġto 0.10438497
Ġreduce 3.339436
Ġtheir 1.795762
Ġincome 6.6269307
-ex 8.849785
pend 0.0077727214
iture 0.012834172
Ġhence 8.038376
Ġlow 5.444482
Ġfood 0.8252491
Ġprices 0.1070109
.ĊĊ 0.86097974
2 0.58863723
Ġnd 7.0269437
Ġpolicy 0.19994769
Ġbrief 0.028408121
Ċ 0.19951276
Natural 7.880273
Ġresources 2.8210607
: 3.3699865
Ġclimate 6.6326275
Ġchange 0.15686327
Ġchallenge 6.7133813
Ċ 0.3981324
The 2.0806556
Ġchange 6.1366987
Ġof 1.681163
Ġclimate 0.61282754
Ġhas 1.8270241
Ġoccurred 4.8013906
Ġrecently 5.9787364
Ġin 3.3667061
Ġthe 0.5695498
Ġcountries 6.920576
Ġthat 1.5185862
Ġcannot 6.454092
Ġhandle 2.7434952
Ġthe 0.84607506
Ġchange 2.0240302
. 0.6937194
ĠThe 0.80384
Ġdeveloping 5.7993374
Ġcountries 0.17446737
Ġare 1.1625282
Ġthe 2.1297865
Ġmost 0.47918957
Ġaffected 0.14321339
Ġbecause 3.118259
Ġthey 0.63512164
Ġdepend 2.846512
Ġon 0.14435518
Ġnatural 1.2641853
Ġresources 0.038591843
. 1.6994058
ĠThe 0.840002
Ġcountries 2.7445633
Ġface 3.6516228
Ġglobal 6.3490767
Ġwarming 0.30884254
Ġdue 2.6179764
Ġto 0.0030966662
Ġindustrial 4.2791185
ization 0.32805595
. 1.8764635
ĠEffective 8.267007
Ġmanagement 2.6118546
Ġof 0.21613562
Ġthe 1.3971851
Ġnatural 0.88857365
Ġresources 0.080029145
Ġleads 5.4183536
Ġto 0.0038119496
Ġclimate 3.9576278
Ġand 5.9394035
Ġsuitable 9.374441
Ġdevelopment 3.8276248
.ĊĊ 0.9114448
So 8.988453
il 0.7333449
Ġerosion 0.8842266
Ċ 1.0165515
Most 4.933896
Ġof 0.92175215
Ġthe 0.015750555
Ġlands 4.831706
Ġare 1.2997301
Ġaffected 2.5795436
Ġby 0.08878786
Ġsoil 0.3932261
Ġerosion 0.029696226
Ġdue 1.5107483
Ġto 0.001838322
Ġcutting 5.5006166
Ġdown 0.6124129
Ġthe 2.5118797
Ġtrees 0.30859917
Ġand 1.4166056
Ġpoor 2.7424917
Ġmanagement 1.869091
Ġof 0.2553472
Ġthe 0.41352624
Ġenvironment 3.4361205
, 4.242488
Ġlike 6.468698
Ġpoor 3.135589
Ġcultivating 7.6435814
Ġand 2.9825187
Ġgrazing 4.100978
Ġpractices 1.4152054
.ĊĊ 2.3373666
Low 7.166237
Ġrain 4.6748857
falls 0.68999296
Ċ 0.31330475
Low 2.5663972
Ġrain 1.0804118
Ġleads 9.777545
Ġto 0.0038414057
Ġlow 1.8410646
Ġcrop 2.0466905
Ġproduction 0.712395
Ġand 1.4323648
Ġdesert 5.207681
ification 0.048306275
. 0.8449219
ĠIt 3.1969373
Ġmakes 4.39417
Ġthe 0.7736229
Ġfarmers 3.879046
Ġhave 4.3736663
Ġdifficulty 4.6762786
Ġplanning 7.00846
Ġcrop 6.196733
Ġcultivation 3.3044071
, 2.4293754
Ġresulting 4.19978
Ġin 0.047768295
Ġa 3.050727
Ġdeveloping 11.536369
Ġcountry 0.4298789
.ĊĊ 2.334789
Policy 5.801449
Ġrecommendation 0.4344371
Ċ 0.061526474
The 1.0092617
Ġgovernment 0.96243566
Ġprotects 9.400881
Ġthe 0.28353727
Ġwater 4.972561
Ġcatch 2.8598955
ment 0.6084244
Ġareas 0.20838712
Ġand 1.4057723
Ġnatural 4.1816096
Ġforests 1.5391037
Ġwithin 7.989644
Ġar 7.6510177
id 0.31604433
Ġand 0.5891269
Ġsemi 0.19535966
-ar 0.047099147
id 0.00087835063
Ġregions 1.8192877
. 0.6971949
ĠThe 0.8381418
Ġgovernment 0.45993817
Ġpromotes 4.213935
Ġfarm 6.7427926
Ġlevels 10.101567
Ġto 2.1686392
Ġmitigate 5.208153
Ġclimate 2.4862971
Ġchange 0.1886575
.ĊĊ 1.5774242
Conclusion 0.79298043
Ċ 0.022858018
The 0.8056452
Ġpractical 8.995991
Ġmeasures 1.7077606
Ġto 2.9750457
Ġbe 3.265865
Ġput 3.5467193
Ġin 0.1526604
Ġplace 0.038682908
Ġto 0.7530368
Ġcontrol 2.6066232
Ġadverse 6.4436407
Ġweather 2.8788764
Ġchanges 2.1352158
Ġthat 3.4526243
Ġcontribute 3.5866284
Ġto 0.008606303
Ġclimate 1.4085212
Ġchange 0.13531132
.ĊĊ 1.4355898
3 0.47893855
Ġrd 0.76569957
Ġpolicy 0.033757612
Ġbrief 0.014119432
Ċ 0.04973703
Suit 10.198572
able 0.094194815
Ġagriculture 6.184805
Ġand 2.4966931
Ġrural 4.073743
Ġdevelopment 0.34406823
Ġ– 5.2394104
Ġstrengthening 7.9977117
Ġrural 3.1489878
Ġand 4.0184484
Ġagricultural 1.1053494
Ġbusiness 6.7159386
Ċ 0.5898718
Suit 3.5426621
able 0.004563988
Ġagriculture 0.18483959
Ġand 0.5415257
Ġrural 0.076031
Ġdevelopment 0.08345777
Ġsatisfy 11.129822
Ġeconomic 5.461277
, 1.0504693
Ġsocial 0.35559845
, 0.54642135
Ġand 0.25723404
Ġcultural 2.7366705
Ġneeds 0.39103496
Ġwithout 6.788025
Ġendanger 4.240121
ing 0.0026075256
Ġfuture 3.2679381
Ġgenerations 0.38946995
. 0.30052698
ĠThere 4.550953
Ġmust 3.5531118
Ġbe 0.027873706
Ġan 2.37153
Ġincreased 4.170456
Ġand 4.091325
Ġexpanded 5.728404
Ġrural 2.9939685
Ġeconomy 2.30434
Ġfor 3.6101289
Ġbetter 4.0214686
Ġagriculture 3.040886
Ġand 0.76488537
Ġrural 0.49579382
Ġdevelopment 0.16804957
.ĊĊ 1.0283145
Free 9.25692
Ġand 3.156787
Ġfair 0.54438305
Ġtrade 0.65580046
Ċ 0.44611517
Free 1.9931483
Ġand 0.28592604
Ġfair 0.025709093
Ġtrade 0.06425953
Ġhelps 3.547215
Ġdeveloping 3.51668
Ġcountries 0.11775042
Ġprovided 12.632143
Ġthey 1.3438694
Ġhave 1.4383695
Ġhumans 12.55487
, 2.1465812
Ġtechnology 4.183584
, 0.10111407
Ġand 0.44064176
Ġinfrastructure 3.133481
Ġto 1.3127608
Ġcompete 2.368992
Ġinternationally 3.5266333
.ĊĊ 1.2302288
Income 7.211695
Ġgeneration 2.240162
Ċ 0.3427534
Road 12.144754
Ġdevelopment 3.5008612
Ġand 1.331805
Ġtransport 3.8528693
Ġpromote 6.0544987
Ġaccess 4.45772
Ġto 0.10107958
Ġthe 2.5474677
Ġmarkets 1.586327
, 1.5872749
Ġhence 3.230053
Ġincreasing 2.0336382
Ġincome 0.85442764
Ġamong 5.6281586
Ġthe 0.46461758
Ġfarmers 1.3042033
. 1.2241018
ĠThe 1.4021393
Ġpromotion 5.786498
Ġof 0.08411686
Ġthe 2.5446477
Ġlocal 4.0151567
Ġproducts 3.5563087
Ġfacilitates 5.678077
Ġincrements 13.872333
Ġin 0.07105905
Ġthe 1.3256274
Ġrevenue 4.7552137
.ĊĊ 1.978693
Policy 1.5106127
Ġrecommendation 0.16031948
Ċ 0.022431945
There 2.9135232
Ġis 0.80271775
Ġa 0.22002806
Ġneed 0.064279884
Ġto 0.64326376
Ġimprove 2.9335308
Ġaccess 3.3166242
Ġto 0.0884142
Ġthe 1.747357
Ġmarkets 0.9641355
Ġand 1.2667707
Ġdevelop 3.9238558
Ġsound 7.468998
Ġtransport 3.2579575
Ġsystems 1.3107914
, 3.2348838
Ġroads 4.863662
, 0.21910073
Ġand 0.20829612
Ġcommunication 2.5801687
Ġchannels 3.4522736
Ġfor 2.9807785
Ġmore 4.9018707
Ġproduction 4.140683
Ġand 0.85631394
Ġincreased 3.199356
Ġincome 0.7398373
Ġgeneration 2.4810908
.ĊĊ 0.63032645
Conclusion 0.23363961
Ċ 0.014354709
The 1.2111435
Ġbest 4.4168463
Ġmeasures 2.3671856
Ġare 1.6403337
Ġrequired 1.1146704
Ġto 0.1134122
Ġfacilitate 3.3009129
Ġincome 3.7392235
Ġgeneration 0.100838415
Ġto 3.2003543
Ġsatisfy 5.931303
Ġthe 0.5604191
Ġeconomy 4.719633
.ĊĊ 1.8323522
Gun 12.397533
ĠViolence 2.1967387
Ġin 1.9115733
ĠAmerica 1.3501318
Ċ 1.1272606
Gun 1.7749499
Ġviolence 0.24411103
Ġis 1.1122974
Ġviolence 5.8195276
Ġthrough 5.4029417
Ġpistols 9.266687
, 0.82271725
Ġshot 2.6362486
guns 0.007254123
, 0.03990862
Ġand 0.8643469
Ġmachine 4.603251
Ġguns 0.06394904
. 0.32539868
ĠThe 1.2556174
Ġviolence 1.9284778
Ġresults 2.770994
Ġin 0.9449532
Ġhomicide 4.8966217
, 0.24775717
Ġmass 5.3443365
Ġshooting 1.433529
, 0.06057413
Ġor 3.8516417
Ġsuicide 0.9120712
. 0.25665542
ĠIn 3.5615702
ĠAmerica 1.5795639
, 0.026434869
Ġmany 4.005751
Ġpeople 0.5944
Ġhave 1.742384
Ġdied 1.3680488
Ġdue 0.88116103
Ġto 0.0013745186
Ġgun 0.3348497
Ġviolence 0.07562933
. 0.85655296
ĠGun 2.910941
Ġviolence 0.20525819
Ġin 3.2179875
ĠAmerica 0.23905292
Ġneeds 4.601477
Ġapplicable 10.808838
Ġbackground 9.129463
Ġchecks 3.4004083
. 3.3695812
ĠPolit 6.585758
icians 0.016131615
Ġand 1.9549482
Ġthe 1.5793177
Ġconcerned 4.974166
Ġgroups 3.2550735
Ġneed 2.7349734
Ġto 0.13160925
Ġensure 4.2911434
Ġfederal 7.725712
Ġregulation 4.5573483
Ġon 2.1108031
Ġgun 1.0716739
Ġownership 1.5336677
. 1.4476482
ĠThe 1.1115378
Ġgovernment 1.734207
Ġneeds 1.7903231
Ġto 0.0737819
Ġinvolve 6.5451584
Ġa 4.379206
Ġjustice 8.809986
Ġdepartment 1.6713028
Ġto 0.8295143
Ġensure 2.6320293
Ġanyone 7.9218454
Ġwho 1.3199674
Ġviolates 3.4678082
Ġthe 0.5429012
Ġrelated 9.347043
Ġlaws 0.83576006
Ġon 4.489339
Ġgun 0.36840463
Ġviolence 1.4058309
Ġis 0.61091423
Ġprosecuted 1.9948162
Ġin 3.7422223
Ġcourt 1.572059
.ĊĊ 0.62268716
The 2.1676493
Ġgovernment 2.0228188
Ġand 3.228508
Ġpoliticians 2.9082413
Ġhave 2.8108172
Ġdeveloped 5.200498
Ġthe 3.21515
Ġnecessary 3.26604
Ġplan 6.7741575
, 3.8270612
Ġsuch 3.8215113
Ġas 0.01304234
Ġno 7.0946574
Ġsales 4.895708
Ġof 0.60467815
Ġfirearms 2.2894244
Ġto 0.29465958
Ġun 6.0115747
licensed 1.426355
Ġgroups 7.0475492
Ġor 2.2294016
Ġindividuals 0.898152
, 1.4757918
Ġlicensing 6.2135124
Ġthe 3.5804186
Ġcompany 9.60015
Ġthat 1.3484325
Ġsells 1.3313323
Ġthe 1.6908062
Ġgun 2.453196
, 0.50084126
Ġand 0.6577943
Ġprohibiting 4.708799
Ġindividuals 3.8193903
Ġfrom 2.700738
Ġcarrying 2.2694101
Ġthe 2.7040331
Ġweapon 3.3114214
Ġin 1.0040199
Ġpublic 0.8413313
. 1.3534955
ĠThe 0.70017815
Ġimplementation 6.167617
Ġof 0.092192076
Ġthe 0.40557846
Ġfederal 4.7765493
Ġregulations 2.3230581
Ġwill 2.289234
Ġminimize 3.5542078
Ġgun 0.6683494
Ġviolence 0.08778188
Ġamong 4.709534
ĠAmericans 2.4251332
. 1.4755943
ĠThe 0.743443
Ġpolitician 7.3842044
Ġorganized 10.155981
Ġthe 1.9167315
Ġcongress 4.390508
Ġto 0.6975305
Ġsupport 4.36814
Ġthe 0.4918782
Ġnational 4.779128
Ġlaws 4.0120506
Ġgoverning 5.1276007
Ġmachine 10.7405
Ġguns 0.43633685
’ 5.5347743
Ġlicensing 5.674893
. 1.6242014
ĠIf 5.699559
Ġthe 0.5503492
Ġset 9.090904
Ġregulations 2.1806784
Ġare 0.277971
Ġadher 3.8195055
ed 0.00034642892
Ġto 0.031238418
, 0.13680895
Ġthere 2.0553355
Ġwill 0.12794325
Ġbe 0.020585917
Ġa 1.6904473
Ġreduction 0.9598929
Ġin 0.15752348
Ġgun 0.50753385
Ġviolence 0.09201007
Ġin 1.2909443
ĠAmerica 0.26475763
. 1.8117743
