China 7.9623103
's 2.4976938
Ġdinner 13.140583
Ġculture 6.6185303
Ġand 3.2164867
Ġtal 13.918398
ic 7.209473
Ġnit 11.247303
Ġthey 9.607999
Ċ 8.164812
China 3.264703
Ġis 1.730542
Ġa 1.0989182
Ġcountry 1.2319223
Ġthat 1.7175272
Ġconcentrates 7.7695704
Ġon 0.65035594
Ġcourtesy 8.629744
Ġwith 5.877548
Ġa 1.9053656
Ġdeep 4.117471
Ġhistory 2.8643684
Ġin 3.6294
Ġits 2.966505
Ġfood 2.9460826
Ġculture 0.6895416
. 0.3820019
ĠIn 2.866349
ĠChina 1.6901882
Ġit 4.277213
Ġis 0.2328001
Ġimportant 2.9582694
Ġto 0.24898835
Ġobserve 5.415315
Ġtable 3.5219011
Ġmanners 0.29318723
, 2.1787398
Ġsince 5.2628202
Ġboth 6.413664
Ġguests 4.2449455
Ġand 0.03205773
Ġnatives 7.4013863
Ġhave 3.2108805
Ġa 1.858427
Ġprecise 7.6763086
Ġplacement 10.054874
Ġon 2.6941636
Ġthe 0.25037265
Ġtable 0.299566
Ġduring 4.903413
Ġmeals 1.8747139
. 0.44410726
ĠIt 2.9298384
Ġis 0.20399085
Ġadmirable 10.832126
Ġthat 2.081192
Ġit 4.8623385
Ġis 0.44178367
Ġadmirable 9.909972
Chinese 12.3621435
Ġstress 11.956388
Ġduring 7.991622
Ġmeals 0.9645519
Ġtakes 8.678607
Ġcare 2.8305702
Ġof 0.4615719
Ġthe 1.3153794
Ġelders 6.6518564
Ġand 1.1533792
Ġchildren 2.8246074
Ġin 3.159618
Ġfront 3.989808
Ġof 0.3957669
Ġothers 4.2811646
. 1.0516447
ĠIn 2.4200144
Ġa 3.8227577
Ġdomestic 8.2472515
Ġsetup 7.27793
, 0.321533
Ġit 2.2765868
Ġis 0.15774517
Ġthe 2.817084
Ġnorm 3.6050491
Ġto 0.962047
Ġplace 2.4079561
Ġthe 0.53272843
Ġmain 6.100088
Ġcourse 2.0833433
Ġthat 6.9822884
Ġconsists 4.7598476
Ġof 0.025797388
Ġgrain 6.5684443
Ġor 2.1250172
Ġrice 0.9090131
.S 11.628723
ociety 7.437963
Ġhas 3.2121768
Ġa 1.7105471
Ġcertain 4.425042
Ġreligious 8.164097
Ġvalue 3.921702
. 2.9601748
ĠBecause 5.7715874
ĠChina 3.5867856
Ġleads 8.963657
Ġto 1.455726
Ġrice 5.212049
Ġcultivation 3.3091154
, 0.5696751
Ġpeople 4.626651
Ġbelieve 3.7222292
Ġthat 0.30529228
Ġit 2.4209628
Ġis 0.4609562
Ġtheir 4.2590895
Ġsource 4.3685293
Ġof 0.044540804
Ġwealth 3.2984314
Ġand 0.924354
Ġthat 3.8772416
Ġthe 2.714119
we 14.719248
Ġin 7.261683
Ġthe 1.3506651
Ġcourt 9.043896
Ġin 5.2180786
Ġevery 5.9484453
Ġdish 3.7611043
. 1.5328923
ĠSitting 9.916698
Ġon 1.9858729
Ġthe 0.31449142
Ġhead 6.139277
Ġof 0.74166596
Ġthe 0.41947293
Ġtable 0.9462168
Ġand 2.9298918
Ġserve 7.375366
Ġfirst 4.2986774
Get 14.585278
Ġrice 3.3997462
Ġshells 11.873271
Ġwith 4.0943694
Ġboth 5.4398613
Ġhands 0.18619385
Ġto 3.1257257
Ġshow 1.7769469
Ġrespect 0.5454108
, 3.5356479
Ġregardless 6.839523
Ġof 0.020878883
Ġthe 1.5428083
Ġage 2.5145953
Ġof 0.90763193
Ġthe 0.1917569
Ġperson 0.70038354
Ġwho 3.1386163
Ġserves 2.8244412
, 3.8622887
Ġso 4.240119
Ġif 4.6809564
Ġit 2.792184
Ġis 0.36883634
Ġin 4.6834807
ĠChina 4.159167
Ġin 4.828576
ĠChina 2.2393432
, 1.0055209
Ġit 1.4304807
Ġis 0.42171875
Ġadvisable 3.8840084
Ġto 0.17381322
Ġlike 10.244784
Ġrice 2.5795588
Ġand 2.2069411
Ġto 3.6906252
Ġsteal 9.502531
Ġit 1.7109655
Ġreligious 11.403553
ly 0.008853047
Ġduring 4.3898587
Ġthe 1.3353183
Ġmeal 0.50705403
Ġtimes 7.5447793
.Ċ 3.6026921
Another 4.582803
Ġclear 8.476409
Ġaspect 3.565297
Ġin 3.172983
ĠChinese 1.3911928
Ġfood 2.3627663
Ġcultures 4.828801
Ġis 0.40393087
Ġthe 0.90921354
Ġfood 4.8561554
Ġof 3.9935849
Ġeating 5.927125
Ġsticks 7.3584156
. 0.77935743
ĠI 7.099133
Ġfound 4.932331
Ġit 1.449427
Ġinteresting 2.1578984
Ġthat 0.78100896
ĠCh 6.7828326
ines 0.18883727
Ġhave 7.0935254
Ġa 1.6844169
Ġunique 3.5917962
Ġway 0.78093493
Ġto 1.8320053
Ġkeep 5.2077246
Ġthe 1.671505
Ġchop 2.609696
sticks 0.07583079
Ġafter 5.6970854
Ġthe 1.4190638
Ġmeal 0.2641242
.And 9.136515
Ġeasy 10.030666
Ġto 0.83756876
Ġeat 3.771449
Ġwith 1.8586135
Ġchop 0.989984
sticks 0.027480846
. 1.992479
ĠIt 2.4817474
Ġis 0.35200244
Ġincredible 8.0597725
Ġhow 2.0355988
Ġpeople 3.7301245
Ġtear 8.748944
Ġmeat 3.871642
Ġand 1.4927601
Ġfish 2.5539293
Ġwith 1.4311746
Ġchop 0.8107967
sticks 0.025193091
Ġwhen 5.013651
ĠI 4.275578
Ġdon 5.890922
't 0.17278007
Ġknow 1.7001146
Ġhow 0.80630517
Ġto 0.40097415
Ġkeep 5.651281
Ġthem 0.72025084
. 1.5159112
ĠI 2.594177
Ġfound 2.4966316
Ġout 3.0068963
Ġthat 0.24801067
Ġchop 2.882497
sticks 0.027067065
Ġin 3.8561058
ĠChina 0.7505384
Ġhave 2.834444
Ġa 0.84018636
Ġcultural 3.8931966
Ġvalue 1.3998822
Ġwhere 5.920515
Ġthey 1.0969409
Ġhave 3.428759
Ġa 1.3582416
Ġmarriage 9.267217
Happy 11.706355
Ġstimuli 14.647138
Ġapply 9.505863
.Ċ 3.94026
Stand 10.944819
ards 0.6846862
Ġand 2.4458938
Ġvalues 3.045699
Ġ​​ 0.83490974
in 1.9640471
Ġ" 9.441145
How 5.623253
Ġfamily 10.16172
Ġworks 5.3593636
"Ċ 3.8087335
The 2.1687975
Ġauthor 6.5625496
Ġdescribes 3.5450134
Ġfamily 4.1000524
Ġnorms 5.0902605
Ġand 0.619035
Ġvalues 0.37095737
Ġ​​ 0.09787909
from 3.708177
Ġa 1.3187182
Ġmore 6.1633883
Ġritual 9.696163
Ġperspective 2.4120317
. 1.1129559
ĠThe 1.9050279
Ġold 7.3057585
Ġcommunities 9.582757
Ġwere 2.6747072
Ġbased 2.8121789
Ġon 0.05342779
Ġrituals 3.8962603
Ġand 1.1269003
Ġceremonies 3.260061
Ġto 3.2759542
Ġdemonstrate 4.527208
Ġtheir 1.5779699
Ġsocio 7.256381
Ġ- 5.156513
c 4.144075
ultural 0.011756737
Ġand 2.7518039
Ġeconomic 1.9822955
Ġimportance 4.6160426
. 0.71211934
ĠThroughout 6.863
Ġrites 11.350153
Ġare 5.8042154
Ġa 3.5366716
Ġstandard 6.6783566
Ġfor 2.9676232
Ġpeople 4.0127335
Ġwho 2.6132908
Ġhave 2.5296118
Ġto 2.9800386
Ġgo 3.8313198
Ġthrough 0.36085087
Ġall 4.836314
Ġphases 3.4678202
Ġfrom 5.5111084
Ġchildhood 2.6182065
Ġto 0.15926088
Ġadulthood 0.796405
.Comm 7.69548
unity 1.0947186
Ġmembers 2.5795267
Ġobserved 7.6001244
Ġall 3.823325
Ġthe 1.3415115
Ġpassage 9.334603
Ġrites 1.3526635
Ġthrough 5.163787
Ġritual 4.9901958
Ġceremonies 2.003261
Ġin 3.6260748
Ġwhich 2.145351
Ġwilling 13.128613
Ġparticipants 1.830156
Ġwere 1.5843854
Ġinvolved 2.2884638
. 0.79460365
ĠHealing 10.603479
Ġto 6.6900578
Ġfamilies 6.0263987
Ġalso 5.079027
Ġcelebrate 8.47671
Ġdifferent 4.9347115
Ġtransition 7.277271
Ġrites 1.2132093
. 2.164443
ĠDuring 4.7420883
Ġthe 0.9399457
Ġnative 11.372506
Ġrituals 3.3968287
, 0.5286155
Ġnowadays 11.506858
, 1.3399284
Ġpeople 2.7336254
Ġcelebrate 3.2423835
Ġand 4.1028724
Ġreligious 8.15368
Ġtraditions 5.355154
Ġto 3.2290394
Ġstages 11.924362
Ġsuch 2.981269
Ġas 0.015750555
Ġbirthday 5.418254
Ġparties 2.7798846
, 0.42811325
Ġgraduation 3.4788208
Ġand 2.3150702
Ġreligious 5.076203
Ġevents 2.8357973
Ġsuch 2.2434843
Ġas 0.011434458
Ġbaptism 2.0374618
Ġand 1.1750631
To 12.13284
Ġmark 4.686327
Ġmarriage 3.5733209
. 1.4319657
ĠThe 1.9357418
Ġoldest 7.671029
Ġensured 15.254824
Ġthat 0.63323414
Ġtraditional 5.8707113
Ġknowledge 6.2078176
Ġacross 8.9932375
Ġgenerations 0.23755416
Ġwas 0.95742446
Ġpassed 1.204241
Ġthrough 2.905937
Ġstories 4.4133954
Ġand 0.9086413
Ġthe 4.4336834
Ġobservation 6.103359
Ġof 0.046218205
Ġtraditional 3.4064677
Ġceremonies 1.8518486
. 0.9181812
ĠThe 1.7775264
Ġpeople 5.758353
Ġhad 4.210951
Ġa 1.3253636
Ġcentral 6.6599946
Ġrelationship 5.280209
Ġthat 3.4059927
Ġdictated 6.6094294
Ġsocial 3.7298255
Ġtraditions 7.437918
, 2.0073402
Ġbehaviors 4.8495398
Ġand 0.43129542
Ġceremonial 8.152849
Ġplaces 8.991358
.Ċ 2.0307565
Important 7.650065
Ġphases 6.923366
Ġsuch 3.7515244
Ġas 0.009294872
Ġmarriage 1.8661268
Ġceremonies 3.5273027
Ġwere 1.7580605
Ġheld 3.7157714
Ġwith 3.1285446
Ġthe 1.6981434
Ġgreatest 5.5211496
Ġrespect 1.609712
. 1.867865
ĠIt 3.1766663
Ġwas 0.69056696
Ġa 1.561943
Ġstandard 5.3470554
Ġfor 1.2039213
Ġthe 1.5964997
Ġgirls 6.798776
' 3.7351131
Ġparents 1.6187624
, 4.147627
Ġa 4.4696207
Ġdow 3.7042906
ry 0.0032146652
Ġwho 6.851499
Ġshows 8.057216
Ġthe 1.2535248
Ġvalue 2.5725691
Ġof 0.2050734
Ġthe 0.89040995
Ġgirl 1.3906698
Ġand 2.0450559
Ġthe 1.2027032
Ġcommunity 5.437199
.The 4.7986135
Ġformation 8.875021
Ġof 0.09339066
Ġan 4.1051087
Ġindependent 4.0112762
ĠUnion 9.589184
. 3.9446597
ĠThe 1.372856
Ġsame 5.4065294
Ġtraditions 5.4453845
Ġapply 2.6951241
Ġin 2.7921677
Ġmodern 3.8350353
Ġsociety 2.0167456
, 1.4934765
Ġin 4.0390153
Ġwhich 0.4959054
Ġpeople 2.5840719
Ġhave 2.7716959
Ġa 1.7674626
Ġcentral 3.9556298
Ġrelationship 0.9795216
Ġthat 1.2159231
Ġdictates 1.1521223
Ġtheir 2.257409
Ġhabits 5.9902554
Ġover 9.244727
Ġgenerations 2.6078298
.W 7.596777
as 4.697931
Ġa 2.890845
Ġvalue 5.419759
Ġthat 1.8490306
Ġall 5.1154413
Ġmembers 2.4789433
Ġasked 11.446583
, 4.5842795
Ġand 2.3922513
Ġduring 6.053364
Ġthe 0.7437678
Ġfestivals 7.3047466
Ġthe 3.198516
Ġpeople 2.5258553
Ġcame 3.1184006
Ġtogether 0.22671135
Ġwith 3.833091
Ġdifferent 4.6324854
Ġobjects 7.088991
Ġto 1.8976786
Ġexchange 4.0917053
Ġand 2.0982225
Ġpublish 10.529167
. 2.3023052
ĠThe 1.5674506
Ġpeople 3.3968725
Ġalso 3.3106763
Ġcelebrate 3.7950685
Ġsignificant 5.8156004
Ġseasons 6.8168106
Ġthrough 4.650925
Ġfestivals 2.5658805
Ġand 1.3938016
Ġreligious 3.0730462
Ġmeetings 5.991623
Ġsuch 3.9669547
Ġas 0.013446319
ĠChristmas 1.4789678
Ġand 0.84117603
ĠThanksgiving 3.5230813
Ġin 3.4673476
Ġtoday 5.9523225
's 0.050833594
Ġcommunities 3.760496
.Ċ 1.1779199
Comparison 6.6463704
Ġwith 2.4985917
Ġthe 1.7107184
Ġfunctionality 11.8813095
Ġof 0.20142046
Ġmy 3.1951323
Ġfamily 1.137154
Ċ 0.41325006
We 5.015071
Ġhave 1.695253
Ġa 0.9512816
Ġcentral 2.887965
Ġrelationship 0.27718967
Ġbetween 3.9481745
Ġour 2.4419296
Ġgrandfather 8.275424
Ġby 8.843432
Ġsharing 4.8903427
Ġthe 1.8939564
Ġsame 1.3980489
Ġname 2.6158652
Ġand 1.6218406
Ġmaintaining 6.313031
Ġthe 1.3493963
Ġsame 1.2231642
Ġfamily 2.7044282
Ġtraditions 3.4783292
. 0.9653552
ĠSitting 11.081333
Ġthe 5.522663
Ġoldest 4.57982
Ġduring 4.6254134
Ġmeals 1.1837255
Ġand 1.2110013
Ġmeetings 6.6299877
Ġon 5.1881785
Ġthe 0.41249576
Ġtable 1.6296031
Ġhead 5.377166
Ġand 2.5090709
Ġabove 7.972354
Ġall 1.696309
.T 8.054168
ur 6.376062
key 0.87854606
Ġand 2.3312948
Ġthe 3.5123837
Ġgreen 6.092598
Ġbean 1.6447852
Ġc 1.0797199
asser 0.002372439
ole 0.0011821311
Ġduring 2.5152066
ĠThanksgiving 0.9195263
Ġand 2.2313805
Ġchocolate 9.39563
Ġcake 1.3522546
Ġto 4.3563037
Ġcelebrate 0.3068297
Ġfor 7.5577044
Ġbirthdays 1.9438231
Ġbelow 12.903204
Ġthe 1.6102525
Ġage 1.7228799
Ġof 0.08268707
Ġ 0.61151016
10 2.3789396
.The 4.7160068
Ġcommunity 5.0559435
Ġleads 8.718937
Ġfamily 5.471139
Ġtraditions 2.46785
Ġthrough 2.9012685
Ġstories 2.2535577
Ġand 0.6838109
Ġbooks 6.044738
Ġthat 1.4954599
Ġhave 2.0517225
Ġbeen 0.4547274
Ġwritten 3.9738142
Ġby 1.287222
Ġmembers 3.3605337
Ġof 0.48219186
Ġthe 0.33036724
Ġcommunity 1.9995855
. 0.9386599
ĠWe 2.279082
Ġkeep 5.169994
Ġreligious 5.94038
Ġvalues 2.1899343
Ġ​​ 0.07683938
and 1.653215
Ġpractices 4.991875
Ġby 2.6659615
Ġvisiting 2.9251924
Ġreligious 3.2592492
Ġceremonies 3.642947
, 3.1502428
Ġmodest 12.31679
Ġand 2.6342564
Ġrespectful 3.4926414
Ġto 3.2606328
Ġeveryone 4.518843
. 1.7380762
ĠOur 3.2205908
Ġfamily 0.9962843
Ġalso 2.478325
Ġcelebrates 1.953375
Ġdevelopment 9.751325
Ġstages 2.5832598
Ġin 3.1175942
Ġaccordance 6.100905
Ġwith 0.022012446
Ġthe 1.2623736
Ġperformance 8.594623
Ġor 5.793054
Life 11.16483
Ġin 3.9050496
Ġlife 4.6727824
. 0.99424
ĠFor 2.6266608
Ġexample 0.12804677
, 0.047510747
Ġwe 1.123572
Ġcelebrate 0.8146096
Ġbirthdays 2.2351635
, 1.2513851
Ġbapt 4.657058
isms 0.025545148
Ġand 0.74371064
Ġgraduates 7.5295587
. 1.5782689
ĠThe 2.0166306
Ġpeople 3.0303462
Ġstill 5.4718246
Ġpay 6.4308558
Ġthe 3.031004
Ġmonetary 8.412447
Ġvalue 0.8698756
Ġbefore 5.644186
Ġmarriage 1.004479
Ġand 2.0191212
Ġweddings 5.604816
. 1.4835877
