China 8.526111
's 2.8692935
Ġdinner 12.777619
Ġculture 7.62075
Ġand 3.7065997
Ġtal 12.643203
ic 9.070275
Ġnit 12.8926935
Ġthey 10.21658
Ċ 8.13474
China 3.6410966
Ġis 2.1704938
Ġa 1.4986008
Ġcountry 1.6144165
Ġthat 1.5033165
Ġconcentrates 9.396589
Ġon 0.70851684
Ġcourtesy 12.500244
Ġwith 6.1076574
Ġa 2.6214345
Ġdeep 6.319868
Ġhistory 4.5660057
Ġin 3.2445123
Ġits 4.131461
Ġfood 3.6867495
Ġculture 0.313223
. 0.417881
ĠIn 3.1236012
ĠChina 2.6962566
Ġit 5.2491455
Ġis 0.4712075
Ġimportant 4.1625795
Ġto 0.23956876
Ġobserve 5.5301943
Ġtable 3.7647533
Ġmanners 0.2730477
, 1.7374004
Ġsince 6.5401454
Ġboth 5.5622234
Ġguests 4.002837
Ġand 0.05056843
Ġnatives 8.117377
Ġhave 2.9173813
Ġa 1.4657434
Ġprecise 9.012631
Ġplacement 9.82034
Ġon 2.5623271
Ġthe 0.2610251
Ġtable 0.45339113
Ġduring 5.50174
Ġmeals 1.1046238
. 0.41857415
ĠIt 3.1237218
Ġis 0.23027313
Ġadmirable 9.640468
Ġthat 1.4129131
Ġit 4.982815
Ġis 0.43927172
Ġadmirable 8.519505
Chinese 13.708375
Ġstress 12.408176
Ġduring 8.212013
Ġmeals 0.9115138
Ġtakes 9.772918
Ġcare 4.4179564
Ġof 0.19089064
Ġthe 1.1127573
Ġelders 7.0962577
Ġand 1.2084563
Ġchildren 2.0065908
Ġin 3.1518178
Ġfront 5.4113455
Ġof 0.14986733
Ġothers 3.5979536
. 0.9402353
ĠIn 2.7256708
Ġa 3.4501216
Ġdomestic 7.1161466
Ġsetup 6.781349
, 0.49997047
Ġit 1.9791477
Ġis 0.20224561
Ġthe 3.0501158
Ġnorm 3.9332535
Ġto 0.79060066
Ġplace 3.9476643
Ġthe 0.80248135
Ġmain 4.9602585
Ġcourse 2.467424
Ġthat 7.778164
Ġconsists 5.8234215
Ġof 0.040802024
Ġgrain 8.000909
Ġor 2.47443
Ġrice 1.6792344
.S 12.383377
ociety 5.556246
Ġhas 2.1621358
Ġa 2.0575116
Ġcertain 4.0760856
Ġreligious 8.500485
Ġvalue 3.6045353
. 3.448996
ĠBecause 5.4768105
ĠChina 5.4594865
Ġleads 8.693035
Ġto 2.833754
Ġrice 6.893223
Ġcultivation 3.611249
, 0.4623415
Ġpeople 3.831131
Ġbelieve 2.8048894
Ġthat 0.31765878
Ġit 1.929392
Ġis 0.30919042
Ġtheir 4.414089
Ġsource 7.9897184
Ġof 0.06468212
Ġwealth 2.6410632
Ġand 1.3278505
Ġthat 3.1268148
Ġthe 2.508992
we 15.695426
Ġin 6.826506
Ġthe 1.2202007
Ġcourt 8.732729
Ġin 5.7891006
Ġevery 6.09813
Ġdish 4.54909
. 1.2447581
ĠSitting 9.383802
Ġon 1.5566558
Ġthe 0.38622436
Ġhead 5.4623027
Ġof 0.64989185
Ġthe 0.3717763
Ġtable 0.87843007
Ġand 3.1854181
Ġserve 7.0242033
Ġfirst 4.8872414
Get 13.951876
Ġrice 2.840482
Ġshells 12.415743
Ġwith 3.6656678
Ġboth 5.993556
Ġhands 0.16363995
Ġto 3.2532
Ġshow 2.7998827
Ġrespect 0.8714733
, 3.1958303
Ġregardless 6.4758587
Ġof 0.040243264
Ġthe 1.3334845
Ġage 2.8048978
Ġof 0.90431595
Ġthe 0.13148719
Ġperson 1.0952051
Ġwho 2.5892768
Ġserves 2.3181832
, 3.4198265
Ġso 3.8926883
Ġif 5.1595936
Ġit 2.708034
Ġis 0.31621343
Ġin 4.9240904
ĠChina 5.1171923
Ġin 4.809987
ĠChina 4.1318803
, 1.0977862
Ġit 1.3928084
Ġis 0.40462038
Ġadvisable 5.8659983
Ġto 0.17516118
Ġlike 9.362796
Ġrice 3.2397692
Ġand 2.601835
Ġto 3.2591243
Ġsteal 9.954985
Ġit 1.8221391
Ġreligious 11.628743
ly 0.089591764
Ġduring 5.295802
Ġthe 1.3220814
Ġmeal 0.48083818
Ġtimes 6.6051617
.Ċ 3.5654833
Another 4.802161
Ġclear 8.793201
Ġaspect 4.0576677
Ġin 2.7194638
ĠChinese 1.3015633
Ġfood 1.8258085
Ġcultures 5.3783765
Ġis 0.2906623
Ġthe 0.86351466
Ġfood 4.3565607
Ġof 3.3809826
Ġeating 6.7073975
Ġsticks 9.120079
. 0.7347577
ĠI 6.907286
Ġfound 4.4276743
Ġit 2.0206618
Ġinteresting 2.3168845
Ġthat 0.76075256
ĠCh 8.090583
ines 0.78265095
Ġhave 8.232505
Ġa 1.1718992
Ġunique 4.544797
Ġway 1.3766682
Ġto 1.6628156
Ġkeep 6.173471
Ġthe 1.5326362
Ġchop 5.1290073
sticks 0.04524379
Ġafter 5.3586016
Ġthe 1.9546471
Ġmeal 0.49407563
.And 8.097925
Ġeasy 10.177156
Ġto 0.8119336
Ġeat 2.1462052
Ġwith 2.6847358
Ġchop 1.6938868
sticks 0.023837915
. 1.451785
ĠIt 2.1609175
Ġis 0.41567168
Ġincredible 6.568713
Ġhow 1.4033544
Ġpeople 3.4822292
Ġtear 9.459216
Ġmeat 5.266572
Ġand 2.0007954
Ġfish 2.4398582
Ġwith 1.3232511
Ġchop 0.5304844
sticks 0.007083803
Ġwhen 4.3553123
ĠI 5.6947913
Ġdon 4.987819
't 0.20169759
Ġknow 1.4476827
Ġhow 0.7493809
Ġto 0.52364385
Ġkeep 6.0062275
Ġthem 1.5008212
. 1.3671508
ĠI 2.4362013
Ġfound 2.8392766
Ġout 3.1816106
Ġthat 0.2802549
Ġchop 3.1845558
sticks 0.035428077
Ġin 2.9536529
ĠChina 0.6416269
Ġhave 2.9839394
Ġa 0.8694128
Ġcultural 5.6338797
Ġvalue 1.0798372
Ġwhere 6.820047
Ġthey 1.3828611
Ġhave 3.039217
Ġa 1.3358803
Ġmarriage 9.302225
Happy 11.307081
Ġstimuli 14.437687
Ġapply 12.443334
.Ċ 5.411539
Stand 10.631758
ards 2.5058737
Ġand 2.7648823
Ġvalues 4.1279373
Ġ​​ 0.61428386
in 1.1219993
Ġ" 9.356646
How 6.438367
Ġfamily 9.143642
Ġworks 4.932041
"Ċ 2.5787146
The 2.1760504
Ġauthor 8.610174
Ġdescribes 4.566224
Ġfamily 3.9530244
Ġnorms 4.1533513
Ġand 1.1947708
Ġvalues 0.36325654
Ġ​​ 0.22743586
from 3.3169696
Ġa 1.6570182
Ġmore 5.94024
Ġritual 9.984124
Ġperspective 2.3258727
. 0.9538646
ĠThe 1.965104
Ġold 7.2720566
Ġcommunities 10.898281
Ġwere 2.7600029
Ġbased 3.1256747
Ġon 0.06277632
Ġrituals 4.3971753
Ġand 1.2484682
Ġceremonies 3.053277
Ġto 3.267882
Ġdemonstrate 4.675927
Ġtheir 2.113687
Ġsocio 8.040186
Ġ- 5.411279
c 3.7543745
ultural 0.017816838
Ġand 2.9799752
Ġeconomic 2.1938221
Ġimportance 3.0313187
. 0.5596984
ĠThroughout 6.6524467
Ġrites 10.593671
Ġare 4.563446
Ġa 4.062008
Ġstandard 6.5393343
Ġfor 2.6011777
Ġpeople 4.570321
Ġwho 2.905765
Ġhave 2.7145915
Ġto 2.0315182
Ġgo 4.1811304
Ġthrough 0.7224035
Ġall 5.129894
Ġphases 3.551425
Ġfrom 4.796902
Ġchildhood 3.103983
Ġto 0.26030177
Ġadulthood 1.2187402
.Comm 9.504025
unity 1.1043032
Ġmembers 2.5112066
Ġobserved 6.4331913
Ġall 4.722227
Ġthe 1.525879
Ġpassage 9.741614
Ġrites 4.5704308
Ġthrough 4.9054103
Ġritual 5.317312
Ġceremonies 2.8836112
Ġin 3.5182137
Ġwhich 2.281102
Ġwilling 12.242218
Ġparticipants 1.1905646
Ġwere 2.2674947
Ġinvolved 2.7980628
. 0.8191139
ĠHealing 10.612282
Ġto 5.7579675
Ġfamilies 5.9545393
Ġalso 5.263382
Ġcelebrate 8.146449
Ġdifferent 5.7445107
Ġtransition 9.745847
Ġrites 1.3973308
. 2.1367712
ĠDuring 4.3667707
Ġthe 1.0665563
Ġnative 11.205547
Ġrituals 3.3733811
, 0.546418
Ġnowadays 11.005742
, 1.2788185
Ġpeople 2.8858752
Ġcelebrate 3.6331406
Ġand 4.265779
Ġreligious 6.9679594
Ġtraditions 5.2195635
Ġto 3.6753614
Ġstages 12.42939
Ġsuch 2.7109888
Ġas 0.009634255
Ġbirthday 5.4339037
Ġparties 1.9776473
, 0.46237007
Ġgraduation 3.7530448
Ġand 2.568801
Ġreligious 6.1684976
Ġevents 2.879178
Ġsuch 2.843751
Ġas 0.008773397
Ġbaptism 4.0825944
Ġand 1.4027348
To 14.016052
Ġmark 4.4951477
Ġmarriage 4.756153
. 1.1930442
ĠThe 1.968626
Ġoldest 6.7484193
Ġensured 14.990807
Ġthat 1.4486744
Ġtraditional 6.563897
Ġknowledge 5.904951
Ġacross 9.135871
Ġgenerations 0.5876513
Ġwas 1.5466576
Ġpassed 0.81206316
Ġthrough 2.9680412
Ġstories 4.6615257
Ġand 0.9710775
Ġthe 4.3623376
Ġobservation 8.445521
Ġof 0.12833317
Ġtraditional 4.5323505
Ġceremonies 1.7977554
. 1.1263356
ĠThe 1.8290958
Ġpeople 5.153529
Ġhad 4.004059
Ġa 1.4031801
Ġcentral 5.273573
Ġrelationship 5.9621606
Ġthat 3.892217
Ġdictated 6.9502954
Ġsocial 3.7712631
Ġtraditions 7.5460615
, 1.8520852
Ġbehaviors 5.7483644
Ġand 0.5188594
Ġceremonial 7.158208
Ġplaces 8.298391
.Ċ 1.7891452
Important 7.363535
Ġphases 6.046216
Ġsuch 3.6668496
Ġas 0.00793227
Ġmarriage 1.6573546
Ġceremonies 3.6543808
Ġwere 2.3491137
Ġheld 3.5776792
Ġwith 3.2410393
Ġthe 1.8865682
Ġgreatest 5.476245
Ġrespect 2.8590212
. 1.6702013
ĠIt 3.1356869
Ġwas 0.7148729
Ġa 1.9559228
Ġstandard 6.343051
Ġfor 1.4346167
Ġthe 1.3566929
Ġgirls 7.1487827
' 3.550006
Ġparents 1.6930361
, 3.6145837
Ġa 4.5171885
Ġdow 7.0625954
ry 0.017966604
Ġwho 8.8081
Ġshows 9.683984
Ġthe 1.4349538
Ġvalue 3.247195
Ġof 0.24540848
Ġthe 0.6564904
Ġgirl 1.4849601
Ġand 1.9820381
Ġthe 1.5906729
Ġcommunity 4.648426
.The 4.583967
Ġformation 8.810961
Ġof 0.09117001
Ġan 4.5450106
Ġindependent 4.311572
ĠUnion 10.661502
. 3.09837
ĠThe 1.5627242
Ġsame 5.7828026
Ġtraditions 6.0119348
Ġapply 4.6990633
Ġin 2.4751806
Ġmodern 4.7217565
Ġsociety 2.3294103
, 1.6045938
Ġin 3.560771
Ġwhich 0.51982987
Ġpeople 2.6666608
Ġhave 2.5414898
Ġa 1.7357757
Ġcentral 2.88072
Ġrelationship 1.2025776
Ġthat 0.9486036
Ġdictates 0.69380003
Ġtheir 4.1601076
Ġhabits 6.618182
Ġover 8.70647
Ġgenerations 1.4816198
.W 6.7210217
as 4.540959
Ġa 2.060439
Ġvalue 5.9369726
Ġthat 1.9506584
Ġall 5.1440578
Ġmembers 2.2038827
Ġasked 9.614377
, 4.0062356
Ġand 2.2876148
Ġduring 5.912531
Ġthe 0.955877
Ġfestivals 6.534113
Ġthe 3.7019076
Ġpeople 2.9383378
Ġcame 4.614462
Ġtogether 0.58964324
Ġwith 3.384669
Ġdifferent 5.2043276
Ġobjects 4.886035
Ġto 1.7714345
Ġexchange 5.4982567
Ġand 2.5044265
Ġpublish 9.943037
. 2.9329047
ĠThe 1.6305766
Ġpeople 2.7237344
Ġalso 2.6492372
Ġcelebrate 4.343089
Ġsignificant 5.754452
Ġseasons 8.4934845
Ġthrough 3.6758244
Ġfestivals 3.286816
Ġand 1.7389
Ġreligious 2.5946589
Ġmeetings 7.3475485
Ġsuch 3.2588224
Ġas 0.013532058
ĠChristmas 3.0766041
Ġand 0.99307215
ĠThanksgiving 4.4346867
Ġin 4.534924
Ġtoday 8.79565
's 0.099055976
Ġcommunities 5.0203156
.Ċ 0.97369653
Comparison 9.477289
Ġwith 1.987849
Ġthe 1.5100945
Ġfunctionality 10.853068
Ġof 0.29255366
Ġmy 7.4772987
Ġfamily 2.6713595
Ċ 0.45756465
We 4.6783156
Ġhave 1.9812285
Ġa 1.2664944
Ġcentral 3.9901526
Ġrelationship 0.37516537
Ġbetween 3.7718182
Ġour 2.9860718
Ġgrandfather 8.88832
Ġby 8.906672
Ġsharing 5.329441
Ġthe 2.0418706
Ġsame 0.95595455
Ġname 4.174676
Ġand 1.2542559
Ġmaintaining 8.231119
Ġthe 1.3592181
Ġsame 0.7602461
Ġfamily 2.704079
Ġtraditions 2.0831017
. 0.7476547
ĠSitting 10.464235
Ġthe 5.9548755
Ġoldest 5.6726
Ġduring 6.281864
Ġmeals 1.5158445
Ġand 1.54997
Ġmeetings 8.196767
Ġon 5.4877305
Ġthe 0.40697876
Ġtable 1.7625513
Ġhead 10.654268
Ġand 2.3488824
Ġabove 6.6525373
Ġall 2.4868104
.T 8.546043
ur 5.6238713
key 0.97546357
Ġand 2.3413966
Ġthe 2.966618
Ġgreen 8.232591
Ġbean 3.7145562
Ġc 5.8943005
asser 0.005081007
ole 0.00079723884
Ġduring 5.473192
ĠThanksgiving 1.7596973
Ġand 2.6493027
Ġchocolate 8.235501
Ġcake 1.3391831
Ġto 4.3058567
Ġcelebrate 0.71885103
Ġfor 7.8024087
Ġbirthdays 2.689618
Ġbelow 11.613391
Ġthe 1.3841351
Ġage 3.1040614
Ġof 0.12201435
Ġ 0.74310553
10 1.9616331
.The 4.2015476
Ġcommunity 5.636836
Ġleads 8.289976
Ġfamily 5.7592754
Ġtraditions 1.587928
Ġthrough 3.1821675
Ġstories 4.4167104
Ġand 0.50871396
Ġbooks 9.030711
Ġthat 2.1088538
Ġhave 2.654635
Ġbeen 1.0768725
Ġwritten 3.883752
Ġby 1.9218194
Ġmembers 3.0690713
Ġof 1.0135877
Ġthe 0.13993578
Ġcommunity 1.1551235
. 0.8195226
ĠWe 2.653675
Ġkeep 5.2374306
Ġreligious 6.302586
Ġvalues 3.6926546
Ġ​​ 0.09029395
and 1.0416933
Ġpractices 4.111537
Ġby 3.3215356
Ġvisiting 3.7939644
Ġreligious 2.2186666
Ġceremonies 2.8284383
, 2.5103846
Ġmodest 12.641051
Ġand 2.5611
Ġrespectful 3.643422
Ġto 2.8745866
Ġeveryone 4.276044
. 1.3549715
ĠOur 3.5889633
Ġfamily 1.6620741
Ġalso 3.4979417
Ġcelebrates 2.3680725
Ġdevelopment 10.460623
Ġstages 3.1068206
Ġin 3.0277545
Ġaccordance 5.6685953
Ġwith 0.10910286
Ġthe 1.1179085
Ġperformance 8.202917
Ġor 5.8045235
Life 13.401099
Ġin 3.9074268
Ġlife 6.242542
. 1.3328996
ĠFor 3.955714
Ġexample 0.39230096
, 0.0742692
Ġwe 1.6675082
Ġcelebrate 0.8762153
Ġbirthdays 2.6364717
, 1.5593448
Ġbapt 3.5909534
isms 0.014332731
Ġand 0.6517032
Ġgraduates 6.6253467
. 1.8659697
ĠThe 1.9523726
Ġpeople 2.14972
Ġstill 5.689455
Ġpay 6.259842
Ġthe 3.7306914
Ġmonetary 10.433643
Ġvalue 0.98182917
Ġbefore 7.5723577
Ġmarriage 1.6344477
Ġand 1.469414
Ġweddings 5.3736773
. 1.4053518
