C 5.340262
ovid 4.5282445
- 0.45797348
19 0.0041397875
Ġhas 2.598085
Ġinfluenced 7.3086834
Ġthe 1.3434187
Ġworld 2.9951038
Ġin 0.8646353
Ġdifferent 4.6962137
Ġways 0.07171413
; 4.2259464
Ġthe 3.0999517
Ġresults 8.063911
Ġof 0.8555822
Ġthe 1.3505943
Ġpandemic 1.1091987
Ġare 1.4890153
Ġnot 2.6830897
Ġyet 1.8411831
Ġclear 1.2703631
. 0.9655099
ĠOne 3.5988407
Ġof 1.0866107
Ġthese 3.0390043
Ġareas 3.9256134
Ġthat 2.6295254
, 6.5583215
Ġdespite 3.0200188
Ġthe 0.9489707
Ġprevious 6.9678717
Ġcolossal 12.602822
Ġprogress 4.7995176
, 0.97498083
Ġstill 3.0090842
Ġhave 4.704622
Ġto 1.8814344
Ġbe 1.1818022
Ġresearched 6.04152
Ġintens 7.4645576
ively 0.0009643423
, 2.490368
Ġis 0.2959355
Ġhealth 4.4125824
Ġcare 2.710316
.Re 12.547817
levant 5.046071
Ġbecause 8.975311
Ġthe 1.8869778
Ġmain 5.001003
Ġflows 11.100919
Ġof 0.38733694
Ġresources 4.2342143
Ġin 2.1010947
Ġhealthcare 3.4548817
Ġare 0.93067235
Ġdirected 4.457963
Ġto 0.62868387
Ġcombat 6.9055595
Ġthe 0.4815151
Ġmost 5.9761844
Ġimportant 3.1006584
Ġdisadvantage 10.408247
ous 5.222749
Ġphysical 8.224402
Ġconsequences 4.22332
Ġof 0.256343
Ġthe 0.565654
Ġinfection 5.683453
Ġworldwide 9.533414
.From 9.49224
Ġthe 1.1134737
Ġenormous 8.326994
Ġadditional 8.182817
Ġburden 3.4189253
Ġthat 2.1083264
Ġthe 1.3689582
Ġpandemic 1.5528282
Ġbrought 4.202736
Ġto 0.94113964
Ġit 7.180366
, 0.40343407
Ġthere 3.5738668
Ġis 1.1195401
Ġa 1.0308415
Ġ" 7.7214575
incre 7.6368694
ased 0.52286905
Ġrisk 3.1535025
, 5.6853013
Ġtrauma 8.179807
Ġor 2.9541879
Ġstress 3.4257228
Ġ- 7.2122335
related 3.4571412
Ġdiseases 3.0915222
, 2.164236
Ġdepression 4.3818707
Ġand 1.2506169
Ġanxiety 0.98455626
" 2.1538253
Ġ( 1.6169747
Cab 11.469235
ark 10.757029
apa 0.0028059408
Ġet 1.6364965
Ġal 0.036479402
., 0.5781252
Ġ 0.05244526
202 0.08577121
0 0.16911395
, 1.9717038
Ġpara 4.646465
. 0.18432868
Ġ 0.22295593
3 2.3239274
) 2.005003
Ġfor 4.4662485
Ġhealth 1.7925525
Ġworkers 1.5150777
.In 4.2006483
Ġaddition 2.0863993
, 0.31105927
Ġthe 1.2566581
Ġrisks 6.581949
Ġfor 3.1481156
Ġnurses 4.835277
Ġand 1.2937394
Ġfemale 8.750335
Ġworkers 2.4277563
Ġare 1.3081927
Ġstatistically 7.499673
Ġgreater 2.6724253
.Ċ 9.888691
In 3.5286033
Ġsuch 5.122274
Ġa 0.45743296
Ġbad 6.9209137
Ġsituation 0.675728
, 0.22685654
Ġhealth 3.8003871
Ġmanagers 5.9352946
Ġhave 1.7680109
Ġto 1.3909988
Ġfind 2.7089949
Ġnew 2.4294336
Ġstress 11.06462
Ġcoping 4.335407
Ġmethods 2.7154284
Ġor 4.8409524
Ġmodels 6.166553
Ġfor 2.1681476
Ġtheir 2.4288917
Ġhealth 2.8690104
Ġfacilities 6.9215703
Ġand 2.6323493
Ġemployees 3.8684003
. 1.4055825
ĠThere 4.2028804
Ġwere 5.0527596
Ġvarious 3.968485
Ġstrategies 3.8441637
Ġin 3.4433577
Ġsuch 6.2795377
Ġa 0.8130666
Ġsituation 1.2116958
Ġaround 7.358593
Ġthe 0.015799958
Ġworld 0.08954664
, 0.81824756
Ġdepending 5.8083305
Ġon 0.023441479
Ġthe 0.29873276
Ġresources 4.374422
Ġthat 2.497252
Ġhad 3.5019255
Ġhealth 8.023661
Ġfacilities 1.4959308
, 2.1020005
Ġcultural 7.7773237
, 3.0146236
Ġsocially 9.694293
Ġand 0.7724965
Ġhistorical 6.919328
The 12.917473
Ġcommunities 7.6005907
. 2.91818
ĠAny 8.601828
Ġof 1.357935
Ġthe 2.329949
Ġmore 7.293907
Ġresearched 7.438054
Ġstrategies 1.2080839
Ġare 2.913126
Ġlisted 4.3956966
Ġand 4.06833
Ġdiscussed 1.920533
Ġin 1.0318367
Ġmore 5.5257163
Ġdetail 0.10152168
.to 13.165476
Ġuse 6.274415
Ġand 4.3126054
Ġcombine 6.87879
Ġthe 2.109017
Ġavailable 2.1350548
Ġresources 0.64651954
Ġof 4.5379133
Ġhealth 2.0250454
Ġmanagers 3.0425515
Ġand 1.4116758
Ġtheir 3.1250033
Ġfacilities 3.1779199
.Ċ 2.445113
With 5.464011
Ġregard 2.6755514
Ġto 0.0039998037
Ġself 6.9032464
-c 5.3577642
op 7.3648105
ier 5.175688
Ġstrategies 2.1269927
, 0.31567022
Ġsix 8.662668
Ġmain 2.8273017
Ġbehavior 9.906677
Ġfor 8.647923
Ġcopies 14.485199
Ġwere 2.3701334
Ġidentified 1.2666858
Ġand 3.2441545
Ġpracticed 7.4789176
Ġduring 3.8238988
Ġthe 0.16550724
ĠCovid 2.9921517
Ġ 4.6053967
19 0.007965621
Ġpandemic 0.2911236
.( 5.8495817
She 7.080965
chter 5.3007
Ġet 1.3481739
Ġal 0.016439596
., 0.10014735
Ġ 0.026749337
202 0.029578764
0 0.062177293
). 2.8866317
ĠAt 6.3382473
Ġthe 0.8639245
Ġsame 1.5006272
Ġtime 0.008144546
, 0.098053105
Ġaround 8.652478
Ġ 1.5508438
14 4.652608
% 2.015685
Ġof 0.11950997
Ġemployees 3.7780182
Ġhave 3.1080043
Ġno 5.4030604
Ġstress 4.9464393
Ġ- 8.038918
c 3.9133284
oping 0.006976079
Ġpractices 6.5005636
.Ċ 2.9828126
Despite 5.7947083
Ġthe 0.50012606
Ġexistence 4.4027224
Ġof 0.025652863
Ġself 4.3546853
Ġ- 2.3864489
c 1.059659
oping 0.05806535
Ġmechanisms 4.1417274
, 0.5312945
Ġthey 3.2561328
Ġmay 3.6460185
Ġnot 0.60715336
Ġbe 0.4210795
Ġenough 2.2553685
, 3.0904112
Ġand 1.9800998
Ġpsych 9.182402
os 0.13075267
ocial 0.092954725
Ġinterventions 2.3652325
Ġmay 1.8586433
Ġbe 0.2043834
Ġnecessary 1.291412
Ġto 1.5478253
Ġreduce 2.42617
Ġstress 1.7043555
Ġ- 5.627449
related 0.07230769
Ġproblems 2.5339353
. 1.6529688
ĠOne 3.9799063
Ġexample 3.8904717
Ġis 1.1172613
Ġthe 0.7167528
Ġintervention 4.6438794
Ġstrategy 5.3567157
Ġdeveloped 3.321218
Ġin 2.4526372
ĠChina 3.5286682
Ġ- 5.7583647
Ġthe 2.738779
Ġfirst 5.053236
Ġcountry 2.268581
Ġto 0.5566577
Ġbe 2.7077742
Ġhit 1.2345264
Ġby 0.10150692
ĠCoronavirus 6.453185
. 1.8074198
ĠThe 1.3704659
Ġstrategy 1.1219548
Ġdemands 9.806696
Ġ" 4.7710476
to 4.601054
Ġharmon 8.869899
ize 0.085906
Ġthe 0.87583274
Ġwork 2.7859309
Ġand 1.8875239
Ġrest 5.003598
Ġperiods 3.8399675
Ġfor 3.4402618
Ġthe 2.3041036
Ġhealth 1.7962333
Ġemployee 8.42875
Ġat 5.2977877
Ġthe 0.87867826
Ġfront 5.570935
, 4.760429
Ġto 2.1431723
Ġstrengthen 4.4255724
Ġtheir 2.8874853
Ġprofessional 5.1856956
Ġhealth 5.0907307
Ġand 2.2082732
Ġsecurity 5.2817087
Ġconditions 5.1533585
Ġand 1.5809457
Ġto 0.39377123
Ġimprove 2.9400387
Ġthe 1.2755799
Ġpsychological 2.4610405
Ġintervention 8.452379
Ġand 2.7176433
Ġadvice 7.5516148
Ġof 2.181234
Ġcrises 11.142573
Ġ” 10.451868
( 0.28550178
Z 3.1873908
hou 1.7499228
Ġet 0.3562252
Ġal 0.014289027
., 0.04511891
Ġ 0.015494937
202 0.026101721
0 0.024613908
, 0.49770838
Ġpara 0.973689
. 0.053010486
Ġ 0.06924991
5 2.6958926
). 0.84782296
ĠTo 5.287203
Ġthe 4.5798573
Ġinterventions 6.3204412
bel 15.846989
ong 1.3041223
ed 2.2029276
Ġto 3.4642835
Ġfinancial 9.556794
Ġsecurity 5.9988875
Ġand 1.9095676
Ġsecure 9.269538
Ġwork 2.8388808
Ġenvironments 2.9038525
, 0.8019708
Ġwhile 6.3582454
Ġthe 1.3603791
Ġemployees 4.5503397
Ġin 4.608618
Ġhealthcare 5.7573123
Ġwere 1.7751316
Ġreceived 7.9119782
Ġonline 8.201078
Ġand 2.5309427
Ġon 4.1355424
Ġsite 2.0501838
Ġpsychological 6.0108905
Ġand 2.9738297
Ġmental 4.164501
Ġhealth 0.6527593
Ġservices 2.0469666
.Ċ 1.3368714
After 5.739536
Ġall 4.2791257
, 0.5045514
Ġit 2.4081538
Ġis 0.54263437
Ġimportant 2.0735707
Ġto 0.31177756
Ġunderstand 3.0662096
Ġin 5.747155
Ġterms 6.16732
Ġof 0.0076741837
Ġawareness 8.163308
Ġof 2.4664905
Ġthe 0.89737225
Ġworkplace 6.39636
Ġthat 2.5348306
Ġin 4.0736094
Ġmany 3.1379178
Ġcases 1.4584976
Ġit 3.0904942
Ġis 0.40147918
Ġdifficult 3.176889
Ġfor 1.6785259
Ġpeople 2.6848066
Ġto 0.19661084
Ġdiagnose 8.817724
Ġdepression 5.503395
Ġor 1.5438435
Ġother 2.5618858
Ġstress 2.469981
Ġ- 1.5079112
related 0.14837651
Ġdisorders 2.1072278
.An 7.7683544
aly 5.268634
zing 0.31936738
. 9.506489
ĠAt 4.839281
Ġthe 0.32513434
Ġsame 0.21586753
Ġtime 0.009430807
, 0.03964639
Ġthe 1.829749
Ġeffect 6.3005147
Ġof 0.19627272
Ġstress 2.9779906
Ġ- 2.6252646
related 0.17677417
Ġdiseases 2.9378424
Ġon 1.2823397
Ġthe 1.0102569
Ġhealth 1.3971661
Ġof 0.7381772
Ġhealth 1.7184523
Ġwillingness 18.095266
Ġcan 3.9914587
Ġbe 0.5048759
Ġdevastating 6.6038356
.St 7.199071
udy 3.6849036
Ġby 2.6820388
Ġan 7.2403917
Ġet 8.994687
Ġal 0.07218183
. 0.5884538
Ġ( 0.41419595
202 0.6743473
0 0.02378041
) 0.3176001
Ġsuggested 5.4060154
Ġto 5.7952533
Ġorganize 6.5398145
Ġregular 5.0065255
Ġscreenings 4.625433
Ġfor 0.88850254
Ġemergencies 10.058312
Ġin 1.947828
Ġemergencies 7.685052
. 2.3546042
ĠSol 11.32052
che 6.866963
Ġpractices 8.168061
Ġcan 2.0442905
Ġhelp 2.303522
Ġboth 5.632813
Ġmembers 8.578255
Ġof 0.1522815
Ġthe 0.36148068
Ġhealth 1.1528897
Ġprofessions 7.0056553
Ġand 0.2650232
Ġthe 1.3644757
Ġpatients 2.9635534
Ġwho 3.0371852
Ġtreat 7.1303725
Ġthem 0.26627627
. 1.7475947
