A 4.0857735
Ġpolicy 9.174826
Ġbrief 3.4128737
Ġis 3.0237434
Ġa 0.48955852
Ġconcise 1.4231353
Ġexplanation 7.0478797
Ġof 0.09581754
Ġa 0.5534027
Ġparticular 2.5053322
Ġissue 1.5595195
. 1.840516
ĠThe 2.3755043
Ġbrief 2.0439463
Ġpolicy 10.056409
Ġaims 3.9903536
Ġat 2.3606198
Ġgovernment 10.408988
Ġpolicymakers 3.3434446
Ġor 2.9537542
Ġinterested 5.6273727
Ġparties 1.5754634
Ġwho 2.1585867
Ġshape 7.5916905
Ġor 2.024063
Ġinfluence 0.6587987
Ġpolicy 0.974822
. 0.95879793
ĠA 2.5824127
Ġpolicy 0.31186372
Ġbrief 0.056497574
Ġprovides 3.515817
Ġadequate 8.118437
Ġbackground 2.1769788
Ġfor 4.188536
Ġthe 1.0498139
Ġreader 1.7900848
Ġto 0.66247785
Ġcomprehend 4.3364444
Ġthe 0.2290303
Ġproblem 2.1998894
Ġand 1.1723075
Ġpersuade 7.996562
Ġthem 1.2291576
Ġto 0.34700042
Ġhandle 10.556709
Ġit 1.1225195
Ġimmediately 5.929098
. 0.58102953
ĠIt 1.8664418
Ġidentifies 6.0586233
Ġthe 0.6509085
Ġmost 4.003582
Ġeffective 2.8240895
Ġsolutions 2.1878777
Ġto 1.0902964
Ġthe 0.5040946
Ġproblem 0.40808114
Ġand 0.79421026
Ġgives 3.584298
Ġdata 5.958814
Ġto 0.9791053
Ġback 1.7725606
Ġthem 2.0358784
Ġup 0.16726094
. 0.42794362
ĠThe 1.7974298
Ġpolicy 1.4658501
Ġbrief 0.09086679
Ġencourages 6.217786
Ġthe 1.230134
Ġreader 0.60552645
Ġto 0.04900267
Ġmake 3.1185274
Ġthe 2.0874152
Ġbest 2.4038734
Ġdecision 0.6119267
Ġpossible 2.1481185
.A 9.291646
Ġgood 3.5267677
Ġpolicy 0.09288998
Ġbrief 0.03845901
Ġshould 1.2999413
Ġbe 1.1335974
Ġconcise 3.0713043
Ġand 1.1504436
Ġfocused 3.9464557
Ġon 1.5133144
Ġmeanings 16.19588
Ġrather 3.3123307
Ġthan 0.008421549
Ġprocedures 7.744233
. 0.32357052
ĠThe 1.9702474
Ġpolicy 2.062449
Ġbrief 0.1550794
Ġshould 0.72759956
Ġconcentrate 5.729265
Ġon 0.07731417
Ġa 2.003666
Ġsingle 1.0472715
Ġissue 1.3416163
Ġor 2.131316
Ġconcern 4.266336
Ġand 1.5948253
Ġgive 3.558204
Ġenough 3.6061013
Ġevidence 3.6587586
Ġfrom 5.5481796
Ġmultiple 4.7591166
Ġsources 0.44274437
Ġ(“ 12.264615
202 10.14113
2 5.2737474
ĠN 6.431673
AC 4.383229
o 2.3246737
ĠLegislative 1.8280172
ĠConference 0.95745593
ĠLiv 10.241503
est 0.02425467
ream 0.0037732397
s 2.4611733
”, 2.6502745
Ġ 0.23604374
202 0.2691843
2 1.1217805
).Ċ 6.4222226
Policy 3.489366
ĠBrief 1.2681799
s 1.9212362
Ġon 3.7408228
Ġthe 2.4858024
ĠState 5.4044905
, 5.0671854
ĠLocal 1.0399984
Ġand 1.4713941
ĠFederal 2.4153562
ĠIssue 8.273057
Ċ 0.8967498
1 3.7534633
st 5.4747853
Ġpolicy 2.6645727
Ġbrief 0.11681474
Ċ 1.5146414
Esc 11.562091
al 0.19282092
ating 0.17657277
ĠFood 6.475149
ĠPrices 1.722085
Ġ– 5.3320885
ĠA 2.2521589
Ġnational 5.963544
Ġcrisis 2.6243355
Ċ 1.0404636
Action 8.474493
Ġto 3.0428746
Ġbe 0.6779718
Ġtaken 0.15309155
Ġto 4.063686
Ġeliminate 5.64263
Ġpoverty 5.4128656
Ġand 1.3862665
Ġhunger 0.72915155
Ċ 1.3795103
Esc 4.1187344
al 0.00053146784
ating 0.015777662
Ġfood 0.28677315
Ġprices 0.05485577
Ġpose 3.713863
Ġa 0.22729333
Ġproblem 4.841679
Ġto 1.176362
Ġthe 0.9832567
Ġpoor 3.232467
, 2.3518505
Ġgovernment 6.8139725
Ġof 5.458695
Ġlow 5.064067
-income 0.48079148
Ġcountries 0.2803202
Ġwith 6.1555476
Ġhigh 2.636753
Ġimport 4.5130286
Ġbills 1.8651007
, 1.1710807
Ġand 0.44515556
Ġaids 10.259865
Ġagencies 1.3828222
Ġmanaging 8.448784
Ġincreased 8.506657
Ġdemand 2.1035383
Ġfor 0.4518839
Ġcash 7.413058
Ġand 2.7040606
Ġfood 0.34460047
. 1.9858333
ĠThe 1.3337694
Ġpoor 4.013746
Ġare 1.5636586
Ġunable 3.4360802
Ġto 0.004245912
Ġbuy 2.436705
Ġfood 1.0213387
. 3.0709999
ĠLow 5.293043
-income 0.18012074
Ġcountries 0.36188883
Ġface 2.8482304
Ġpolitical 7.0819197
Ġunrest 3.0192502
. 2.6450572
ĠThe 1.6167291
Ġproblem 4.149452
Ġeman 7.5999303
ates 0.06867912
Ġfrom 0.048032153
Ġa 2.481666
Ġlack 3.2192867
Ġof 0.01032258
Ġbetter 8.49347
Ġinvestment 5.669782
Ġin 0.5503199
Ġthe 2.20231
Ġfood 2.6577234
Ġindustry 2.55377
Ġand 1.7974352
Ġpoor 3.3437233
Ġmanagement 2.5971537
Ġof 0.34801564
Ġthe 1.5296739
Ġnational 5.114467
Ġfood 1.1515518
Ġsupply 1.3800756
Ġ( 3.4101183
L 4.008256
ub 4.863262
ell 1.0994692
, 0.27985504
Ġ 0.3485725
202 1.6023009
1 0.87894696
).Ċ 0.67820233
What 4.554352
Ġhappens 6.2485447
Ġand 5.7640977
Ġwhy 0.8545792
?Ċ 1.062187
Initially 8.614863
, 0.033140942
Ġfood 2.1869671
Ġprices 0.5869569
Ġwere 1.4497567
Ġaffordable 4.9023886
Ġsince 5.6520677
Ġthe 1.2197492
Ġfarmers 4.4033456
Ġand 3.3832228
Ġthe 1.9172838
Ġgovernment 1.5936233
Ġhad 1.9387442
Ġinvested 3.121304
Ġa 3.2559562
Ġlot 0.08525575
Ġin 0.3587256
Ġthe 0.4501261
Ġagriculture 2.7845035
Ġindustry 1.1872427
. 0.19368663
ĠSince 4.849118
Ġ 1.8263965
200 0.42416954
0 2.541161
, 0.096375555
Ġfood 1.93379
Ġprices 0.22786222
Ġhave 0.3935589
Ġstarted 5.418422
Ġescalating 2.5276365
Ġdue 2.0944133
Ġto 0.002166202
Ġthe 2.1531026
Ġincreased 2.9098809
Ġcost 3.5106227
Ġof 0.02655073
Ġfertil 3.1778636
izers 0.026511023
, 0.54225355
Ġfarm 4.7483745
Ġmachinery 1.4294404
, 0.10584207
Ġand 0.6459609
Ġchemicals 4.551314
. 0.54907423
ĠAn 5.6109195
Ġincrease 0.48307332
Ġin 0.037058074
Ġfood 2.9154472
Ġprices 0.3140865
Ġwas 4.6760902
Ġdue 2.8474305
Ġto 0.006315531
Ġincrements 11.342085
Ġin 0.05697097
Ġfuels 8.227541
Ġprices 2.6707335
.Ċ 4.080097
Impact 7.19464
Ġon 1.1634066
Ġthe 0.49762142
Ġpoor 0.9909962
, 3.4989762
Ġlow 1.949589
-income 0.07624331
Ġcounties 5.3596754
Ġand 1.4586544
Ġfarming 8.355711
Ġindustries 4.0099926
Ċ 0.24666187
The 0.9952638
Ġpoor 1.2714542
Ġspend 4.1636395
Ġmost 1.9972591
Ġof 0.017577214
Ġtheir 0.027837304
Ġincome 0.7965495
Ġon 0.11306475
Ġfood 0.10116825
; 3.898478
Ġhence 1.3492328
Ġescalating 4.9258804
Ġfood 0.17684661
Ġprices 0.025286786
Ġcontribute 6.060111
Ġto 0.08775709
Ġhigh 3.573828
Ġexpenditure 6.2653193
, 2.9180126
Ġwhich 1.6248529
Ġis 2.5919008
Ġnot 1.803504
Ġmanageable 3.9065108
. 0.5175981
ĠThe 1.4359612
Ġhigher 6.5671177
Ġfood 1.3447278
Ġprices 0.15566632
Ġcontribute 3.0291762
Ġto 0.018075958
Ġhigher 3.6395671
Ġtransport 5.546322
Ġcosts 0.48224613
Ġthat 4.1153584
Ġaffect 2.0848796
Ġfarmers 3.650907
’ 2.0876188
Ġincome 1.9951215
. 0.7083392
ĠThe 1.333646
Ġlow 3.0367408
-income 0.12250836
Ġcountries 0.379595
Ġface 2.598042
Ġpressure 5.069208
Ġfrom 1.2355176
Ġthe 1.1986057
Ġbills 8.750505
, 2.7900405
Ġleading 4.4930296
Ġto 0.023514496
Ġlow 4.7078567
Ġeconomic 3.0737727
Ġdevelopment 2.4547691
Ġand 2.1912827
Ġgrowth 4.439795
Ġ( 2.2097263
L 0.6830081
ub 0.032989748
ell 0.00028779538
, 0.008782737
Ġ 0.004584161
202 0.0015539054
1 0.0042108903
).Ċ 0.14850157
Policy 3.8936033
Ġrecommendation 3.7882993
Ċ 0.32859987
U 7.3289294
rg 0.4141829
ent 0.09257804
Ġaction 1.3614283
Ġis 1.1213111
Ġrequired 1.019018
Ġto 0.23190561
Ġeliminate 3.3022418
Ġdistress 11.248508
Ġthat 4.4749327
Ġeman 4.876781
ates 0.020686228
Ġfrom 0.018255416
Ġescalating 1.4341637
Ġfood 0.032008424
Ġprices 0.021018846
, 3.7517583
Ġand 2.577991
Ġmore 5.575615
Ġresources 3.6520922
Ġare 1.7917299
Ġneeded 1.0337665
Ġto 0.43194526
Ġsupport 2.8302891
ĠW 12.4986
EP 12.923309
Ġand 2.9012477
Ġassist 6.3854265
Ġdeveloping 3.6416426
Ġcountries 0.2042663
Ġwith 3.3296661
Ġhigher 4.22425
Ġimport 1.1796736
Ġbills 0.12273562
. 0.57499456
ĠRelevant 7.962118
Ġpolicies 3.2567213
Ġare 2.5070035
Ġrequired 1.0967294
Ġto 0.17905267
Ġhelp 3.7496917
Ġfarmers 2.3090417
Ġproduce 3.6000812
Ġmore 0.74852496
Ġfood 0.7478473
.Ċ 3.4744859
Conclusion 3.6440022
Ċ 0.082985006
The 1.4871457
Ġcorrect 9.38027
Ġmeasure 5.328485
Ġis 1.6392736
Ġneeded 2.2015152
Ġto 0.14868303
Ġcontrol 3.447051
Ġthe 1.2510324
Ġfood 2.2188764
Ġprices 1.003682
Ġand 1.4453055
Ġpromote 4.7294655
Ġeconomic 2.5041206
Ġgrowth 0.5549102
. 1.2870246
ĠThe 1.1721678
Ġgovernment 1.4868762
Ġmust 2.6490974
Ġregulate 4.9558573
Ġthe 0.5252926
Ġoil 5.534052
Ġprices 1.0745802
Ġto 1.1570272
Ġenable 4.0648236
Ġfarmers 0.96017617
Ġand 2.896672
Ġthe 1.4911292
Ġagriculture 3.6709313
Ġindustry 0.20143487
Ġto 0.0726372
Ġreduce 3.3952062
Ġtheir 1.7931297
Ġincome 6.6166706
-ex 9.185594
pend 0.0090635875
iture 0.018464563
Ġhence 8.303049
Ġlow 5.4484844
Ġfood 0.69340414
Ġprices 0.10090868
.Ċ 1.0147325
2 0.6833232
Ġnd 5.782292
Ġpolicy 1.2826821
Ġbrief 0.06951061
Ċ 0.084658876
Natural 7.0951834
Ġresources 3.0314958
: 3.3893654
Ġclimate 6.2883077
Ġchange 0.18809144
Ġchallenge 6.5558543
Ċ 0.36539042
The 2.3752418
Ġchange 6.2208843
Ġof 1.7572436
Ġclimate 0.67025244
Ġhas 1.7885617
Ġoccurred 4.948507
Ġrecently 5.8687844
Ġin 3.275543
Ġthe 0.57321715
Ġcountries 6.9502015
Ġthat 1.7841325
Ġcannot 6.474895
Ġhandle 2.7255988
Ġthe 0.89051497
Ġchange 2.1801164
. 0.87518686
ĠThe 0.7929553
Ġdeveloping 6.092597
Ġcountries 0.18264972
Ġare 1.1967031
Ġthe 2.1535187
Ġmost 0.51165515
Ġaffected 0.14119498
Ġbecause 3.0391998
Ġthey 0.65391994
Ġdepend 2.9916945
Ġon 0.12711225
Ġnatural 1.2540702
Ġresources 0.03857773
. 1.742058
ĠThe 0.8315748
Ġcountries 2.749732
Ġface 3.5749915
Ġglobal 6.4298453
Ġwarming 0.31326258
Ġdue 2.6739984
Ġto 0.0026223855
Ġindustrial 4.2680297
ization 0.32395074
. 1.9590381
ĠEffective 8.600196
Ġmanagement 2.43395
Ġof 0.21341085
Ġthe 1.3745177
Ġnatural 0.8602419
Ġresources 0.08145581
Ġleads 5.421887
Ġto 0.0039158496
Ġclimate 3.7247434
Ġand 5.895146
Ġsuitable 9.467044
Ġdevelopment 3.7153518
.Ċ 1.8159456
So 8.685431
il 0.37744132
Ġerosion 0.8749163
Ċ 1.7024403
Most 4.899048
Ġof 0.92000973
Ġthe 0.013715617
Ġlands 4.6883793
Ġare 1.313675
Ġaffected 2.598995
Ġby 0.106583975
Ġsoil 0.3828087
Ġerosion 0.029286956
Ġdue 1.5090443
Ġto 0.0010376911
Ġcutting 5.6747055
Ġdown 0.6148188
Ġthe 2.4431229
Ġtrees 0.31254986
Ġand 1.3710433
Ġpoor 2.8522975
Ġmanagement 1.971499
Ġof 0.24496295
Ġthe 0.396323
Ġenvironment 3.5148945
, 3.9176629
Ġlike 6.4967303
Ġpoor 3.1936774
Ġcultivating 7.628711
Ġand 3.0449052
Ġgrazing 4.067033
Ġpractices 1.2498116
.Ċ 2.528448
Low 6.8237567
Ġrain 4.9341564
falls 0.63805753
Ċ 0.50830436
Low 2.4921856
Ġrain 1.188545
Ġleads 9.299513
Ġto 0.0037847508
Ġlow 1.8528647
Ġcrop 2.0472696
Ġproduction 0.6973304
Ġand 1.4374847
Ġdesert 5.2858067
ification 0.049232498
. 0.92685544
ĠIt 3.130448
Ġmakes 4.3419113
Ġthe 0.7461027
Ġfarmers 3.9884624
Ġhave 4.336459
Ġdifficulty 4.6073394
Ġplanning 6.985854
Ġcrop 6.2229404
Ġcultivation 3.164791
, 2.326631
Ġresulting 4.04478
Ġin 0.04271973
Ġa 2.9018874
Ġdeveloping 11.449863
Ġcountry 0.4094469
.Ċ 2.7124357
Policy 5.8525243
Ġrecommendation 0.5452632
Ċ 0.07611961
The 1.0490701
Ġgovernment 0.93504643
Ġprotects 9.450237
Ġthe 0.29723114
Ġwater 4.8607016
Ġcatch 3.3088427
ment 0.6016004
Ġareas 0.21234636
Ġand 1.3931835
Ġnatural 4.1657977
Ġforests 1.5493636
Ġwithin 8.013124
Ġar 7.93999
id 0.43917635
Ġand 0.59499544
Ġsemi 0.22563238
-ar 0.06276725
id 0.00026908406
Ġregions 1.8952715
. 0.77427256
ĠThe 0.84725475
Ġgovernment 0.45737824
Ġpromotes 4.1787033
Ġfarm 6.737835
Ġlevels 10.121343
Ġto 2.118462
Ġmitigate 5.208328
Ġclimate 2.4151487
Ġchange 0.19560535
.Ċ 1.8717421
Conclusion 0.8136701
Ċ 0.014424857
The 0.7899585
Ġpractical 9.032343
Ġmeasures 1.6787812
Ġto 3.0434186
Ġbe 3.2104115
Ġput 3.5795317
Ġin 0.1597731
Ġplace 0.03980346
Ġto 0.84431064
Ġcontrol 2.5945168
Ġadverse 6.4695635
Ġweather 2.8292713
Ġchanges 2.225237
Ġthat 3.4174037
Ġcontribute 3.7627552
Ġto 0.008553231
Ġclimate 1.4666761
Ġchange 0.14664045
Ġ( 4.591778
L 1.4715031
ub 0.1157116
ell 0.0029693802
, 0.011044291
Ġ 0.0044130287
202 0.0067391694
1 0.016019704
).Ċ 0.087084465
3 0.36666387
Ġrd 0.38626635
Ġpolicy 0.06833704
Ġbrief 0.01278415
Ċ 0.026492923
Suit 9.981088
able 0.047533933
Ġagriculture 5.951812
Ġand 2.5144236
Ġrural 4.1049557
Ġdevelopment 0.40040404
Ġ– 5.123805
Ġstrengthening 8.040435
Ġrural 3.2930932
Ġand 3.916686
Ġagricultural 1.1087772
Ġbusiness 6.554103
Ċ 0.48465395
Suit 3.2510774
able 0.004507139
Ġagriculture 0.2079297
Ġand 0.49662605
Ġrural 0.075365365
Ġdevelopment 0.07224239
Ġsatisfy 11.333273
Ġeconomic 5.44154
, 1.0416307
Ġsocial 0.37027022
, 0.4771247
Ġand 0.22934
Ġcultural 2.8407652
Ġneeds 0.4172399
Ġwithout 6.736173
Ġendanger 4.2662344
ing 0.001662205
Ġfuture 3.1015363
Ġgenerations 0.3104344
. 0.34600222
ĠThere 4.5580134
Ġmust 3.5265346
Ġbe 0.030558985
Ġan 2.3725293
Ġincreased 4.2147713
Ġand 4.0358715
Ġexpanded 5.8156347
Ġrural 3.1598587
Ġeconomy 2.406067
Ġfor 3.5948627
Ġbetter 3.9847145
Ġagriculture 3.0830412
Ġand 0.7454318
Ġrural 0.5312159
Ġdevelopment 0.18110369
.Ċ 1.4958073
Free 9.433809
Ġand 2.6819515
Ġfair 0.46784204
Ġtrade 0.59004736
Ċ 0.49595115
Free 2.0611336
Ġand 0.2787764
Ġfair 0.02484348
Ġtrade 0.05968165
Ġhelps 3.4363422
Ġdeveloping 3.5335972
Ġcountries 0.1091578
Ġprovided 12.668602
Ġthey 1.3382486
Ġhave 1.4162437
Ġhumans 12.507583
, 2.1535504
Ġtechnology 4.238166
, 0.086752675
Ġand 0.40906465
Ġinfrastructure 3.2087288
Ġto 1.347431
Ġcompete 2.437377
Ġinternationally 3.6239882
.Ċ 1.3537526
Income 7.260433
Ġgeneration 2.3193803
Ċ 0.33718947
Road 12.321525
Ġdevelopment 3.3571115
Ġand 1.3779374
Ġtransport 3.794011
Ġpromote 5.97321
Ġaccess 4.458983
Ġto 0.09702954
Ġthe 2.4966836
Ġmarkets 1.5977833
, 1.5245471
Ġhence 3.439268
Ġincreasing 2.0328188
Ġincome 0.82821524
Ġamong 5.534332
Ġthe 0.49622145
Ġfarmers 1.2473243
. 1.2192905
ĠThe 1.4474087
Ġpromotion 5.7324653
Ġof 0.08829241
Ġthe 2.467855
Ġlocal 4.134096
Ġproducts 3.47468
Ġfacilitates 5.719428
Ġincrements 13.76239
Ġin 0.07180056
Ġthe 1.296567
Ġrevenue 4.6419
.Ċ 2.2023673
Policy 1.8776839
Ġrecommendation 0.1293719
Ċ 0.02049062
There 2.9824874
Ġis 0.7959258
Ġa 0.22128753
Ġneed 0.07171391
Ġto 0.67380923
Ġimprove 2.9246578
Ġaccess 3.3620844
Ġto 0.088774666
Ġthe 1.701426
Ġmarkets 1.0329156
Ġand 1.2479085
Ġdevelop 3.8300984
Ġsound 7.4962087
Ġtransport 3.1210527
Ġsystems 1.2739533
, 3.1730638
Ġroads 4.7826986
, 0.18567291
Ġand 0.19479236
Ġcommunication 2.7293406
Ġchannels 3.355812
Ġfor 2.9529965
Ġmore 4.7861814
Ġproduction 4.154317
Ġand 0.87528986
Ġincreased 3.1865888
Ġincome 0.72650003
Ġgeneration 2.4578285
.Ċ 1.0964392
Conclusion 0.29334202
Ċ 0.008107059
The 1.1298844
Ġbest 4.74148
Ġmeasures 2.4489434
Ġare 1.3910373
Ġrequired 1.2011266
Ġto 0.10877018
Ġfacilitate 3.3340132
Ġincome 3.6016335
Ġgeneration 0.09604716
Ġto 3.187909
Ġsatisfy 6.1544514
Ġthe 0.5463106
Ġeconomy 4.6968765
.Ċ 2.4244967
Gun 13.2889805
ĠViolence 1.8600992
Ġin 1.912971
ĠAmerica 1.4291072
Ċ 0.47543266
Gun 1.8125068
Ġviolence 0.19026203
Ġis 1.1114587
Ġviolence 5.88585
Ġthrough 5.564462
Ġpistols 9.2533
, 0.76409113
Ġshot 2.6689034
guns 0.0059696767
, 0.033398774
Ġand 0.8843358
Ġmachine 4.6806912
Ġguns 0.05911977
. 0.38696983
ĠThe 1.2774565
Ġviolence 2.0683212
Ġresults 2.8165855
Ġin 0.852589
Ġhomicide 4.919165
, 0.23406059
Ġmass 5.2410326
Ġshooting 1.4417801
, 0.05710361
Ġor 3.9234319
Ġsuicide 0.90705156
. 0.2913848
ĠIn 3.5291827
ĠAmerica 1.6371552
, 0.02479639
Ġmany 3.981513
Ġpeople 0.5809595
Ġhave 1.7602869
Ġdied 1.4456604
Ġdue 0.85703486
Ġto 0.0012120219
Ġgun 0.33219102
Ġviolence 0.07496431
. 0.8312523
ĠGun 2.8836129
Ġviolence 0.18523431
Ġin 3.1289148
ĠAmerica 0.2315501
Ġneeds 4.7876697
Ġapplicable 10.797706
Ġbackground 9.238048
Ġchecks 3.4526234
. 3.1079156
ĠPolit 6.63522
icians 0.016477581
Ġand 1.9744627
Ġthe 1.6060765
Ġconcerned 5.066775
Ġgroups 3.4140358
Ġneed 2.6635213
Ġto 0.12511311
Ġensure 4.3041773
Ġfederal 7.662835
Ġregulation 4.5976195
Ġon 2.0494807
Ġgun 1.0427021
Ġownership 1.66951
Ġ( 2.6582284
V 5.3846536
ern 4.0269403
ick 0.4544869
Ġet 2.7081473
Ġal 0.04917473
., 0.16276497
Ġ 0.013142932
201 1.2429994
7 2.0669556
). 2.207733
ĠThe 1.1722742
Ġgovernment 1.8823823
Ġneeds 1.844795
Ġto 0.07763035
Ġinvolve 6.450193
Ġa 4.3450613
Ġjustice 8.959608
Ġdepartment 1.7567109
Ġto 0.8595067
Ġensure 2.5325196
Ġanyone 7.9307976
Ġwho 1.2773811
Ġviolates 3.4364245
Ġthe 0.51532954
Ġrelated 9.203591
Ġlaws 0.8579676
Ġon 4.304922
Ġgun 0.35384974
Ġviolence 1.2537582
Ġis 0.64667886
Ġprosecuted 1.9980973
Ġin 3.6808
Ġcourt 1.5199376
.Ċ 0.89622813
The 1.8555229
Ġgovernment 1.2707709
Ġand 3.4604406
Ġpoliticians 3.539025
Ġhave 3.1100898
Ġdeveloped 4.8819313
Ġthe 3.2288253
Ġnecessary 3.1957953
Ġplan 6.74989
, 3.93359
Ġsuch 3.621916
Ġas 0.008437037
Ġno 7.130375
Ġsales 4.711309
Ġof 0.6186779
Ġfirearms 2.236701
Ġto 0.30591744
Ġun 5.9775295
licensed 1.4951713
Ġgroups 7.0633674
Ġor 2.2551107
Ġindividuals 1.0474862
, 1.5254655
Ġlicensing 6.162714
Ġthe 3.4657493
Ġcompany 9.547909
Ġthat 1.2849336
Ġsells 1.3137094
Ġthe 1.7241353
Ġgun 2.4929552
, 0.5173381
Ġand 0.5961407
Ġprohibiting 4.728847
Ġindividuals 3.7723565
Ġfrom 2.7691584
Ġcarrying 2.312745
Ġthe 2.7655444
Ġweapon 3.2549977
Ġin 1.0010078
Ġpublic 0.8544252
. 1.4817816
ĠThe 0.72449625
Ġimplementation 5.9213943
Ġof 0.09769045
Ġthe 0.4214918
Ġfederal 4.7578373
Ġregulations 2.255209
Ġwill 2.4470725
Ġminimize 3.4712834
Ġgun 0.6762939
Ġviolence 0.08525892
Ġamong 4.7352276
ĠAmericans 2.262906
. 1.5960193
ĠThe 0.78831905
Ġpolitician 7.60348
Ġorganized 10.028899
Ġthe 1.8415205
Ġcongress 4.5167155
Ġto 0.7621532
Ġsupport 4.429001
Ġthe 0.48698997
Ġnational 4.8023233
Ġlaws 4.079778
Ġgoverning 5.241661
Ġmachine 10.9588
Ġguns 0.44350564
’ 5.282102
Ġlicensing 5.7273374
. 1.8204017
ĠIf 5.5978136
Ġthe 0.54273754
Ġset 9.105908
Ġregulations 2.1823444
Ġare 0.28333148
Ġadher 3.8966374
ed 0.00036251772
Ġto 0.030816372
, 0.14022096
Ġthere 2.0680633
Ġwill 0.13859902
Ġbe 0.02000044
Ġa 1.5818325
Ġreduction 0.98478657
Ġin 0.15145163
Ġgun 0.5184276
Ġviolence 0.09501123
Ġin 1.1581136
ĠAmerica 0.26664186
Ġ( 0.8436927
V 0.18433402
ern 0.0013233344
ick 0.0011362854
Ġet 0.019998102
Ġal 0.003452649
., 0.010063579
Ġ 0.0024406933
201 0.0043212837
7 0.0027045428
). 2.628331
