Throughout 9.025611
Ġthe 0.8221398
Ġann 8.5950985
als 0.0703004
Ġof 0.012430063
Ġtime 2.8717096
, 0.2632437
Ġthe 2.364365
Ġemergence 7.705568
Ġof 0.09529802
Ġstates 8.160868
Ġin 3.6118689
ĠWestern 5.4479704
ĠEurope 0.7556878
, 2.3892436
ĠChina 4.3942585
, 0.38579422
Ġthe 2.4083438
ĠIslamic 3.8396702
ĠWorld 2.4593177
, 0.39049911
Ġand 0.5780638
ĠIndia 3.0272973
Ġhas 1.3988683
Ġbeen 0.7985743
Ġprofoundly 6.507042
Ġsw 9.219789
ayed 0.052785695
Ġby 0.06334422
Ġsocial 5.8507996
Ġtactics 10.459017
Ġof 2.3601098
Ġauthority 7.7277703
. 1.0478674
ĠThese 2.7282913
Ġstrat 6.3408365
ag 0.07555008
ems 0.0032386745
Ġwield 8.746946
ed 0.15946823
Ġa 4.6764364
Ġpivotal 7.1376734
Ġinfluence 2.8079953
Ġin 1.7033622
Ġmolding 5.44507
Ġthe 0.6899236
Ġpolitical 2.9697678
Ġterrain 5.643925
Ġof 0.778621
Ġthese 1.5656853
Ġrealms 4.9499135
, 1.2832894
Ġultimately 4.77723
Ġcul 4.720086
minating 0.0054843025
Ġin 0.15498015
Ġthe 0.3939186
Ġinception 6.4223776
Ġof 0.06976702
Ġpotent 7.873557
Ġand 3.152643
Ġenduring 2.6168349
Ġstates 2.1636343
.ĊĊ 1.822706
In 2.0997145
Ġthe 1.9397637
Ġrealm 4.3683777
Ġof 0.007129735
ĠWestern 4.184082
ĠEurope 0.28902277
, 0.117612876
Ġthe 0.8562225
Ġfeudal 5.838951
Ġparadigm 6.5492496
Ġexert 6.3108554
ed 0.0142238
Ġa 0.8519478
Ġmoment 7.5169983
ous 0.0071882
Ġimpact 1.9972783
Ġon 0.5877257
Ġthe 0.45016563
Ġevolution 3.1057308
Ġof 0.04064008
Ġstates 2.6473203
. 0.7450337
ĠWithin 5.3007393
Ġthis 1.0228927
Ġstructure 4.388774
, 0.17586784
Ġauthority 4.4536414
Ġwas 0.47296888
Ġdiff 7.6062016
used 0.08817575
Ġand 2.9775596
Ġheld 5.544417
Ġby 0.99209094
Ġlocal 5.066031
Ġbar 3.7796977
ons 0.028275678
, 1.1007669
Ġwho 1.5521253
Ġswore 6.3767576
Ġfe 1.203292
alty 0.00017600802
Ġto 0.09335059
Ġa 1.6615748
Ġsuperior 4.937071
Ġlord 1.4743617
Ġin 3.182238
Ġexchange 0.8467031
Ġfor 0.0070492486
Ġsafeguard 9.029944
ing 0.08331838
Ġand 3.1237686
Ġprovisions 9.5347185
. 0.54799736
ĠThis 2.2872908
Ġsystem 2.242907
Ġlaid 5.9561872
Ġthe 0.18992867
Ġgroundwork 0.94515777
Ġfor 0.06169067
Ġgovernance 7.573127
, 1.8424108
Ġfacilitating 7.3568587
Ġthe 0.53624153
Ġcentral 6.5024815
ization 0.041917674
Ġof 0.11445667
Ġauthority 2.1035492
Ġand 1.2993888
Ġthe 1.2668351
Ġformation 2.9787931
Ġof 0.0071492647
Ġnation 4.4139037
-states 0.13433658
Ġlike 6.0137057
ĠEngland 0.64636576
Ġand 1.1800317
ĠFrance 0.2180186
. 0.8469113
ĠMoreover 4.6336174
, 0.0018363029
Ġthe 1.1306546
Ġascent 9.408973
Ġof 0.05736659
Ġformidable 9.568605
Ġmonarch 2.0529785
ies 2.0974307
Ġin 1.823913
ĠWestern 1.7867504
ĠEurope 0.023233363
, 2.280496
Ġemploying 10.8309
Ġdiverse 6.500462
Ġsocial 2.921495
Ġmaneuvers 5.6047306
Ġsuch 3.895087
Ġas 0.004216709
Ġpower 5.4685216
Ġcentral 8.627015
ization 0.0077892668
Ġand 1.0190408
Ġbureaucratic 5.6566963
Ġframeworks 7.0359583
, 0.23803788
Ġfurther 3.448889
Ġcement 3.19734
ed 0.003878339
Ġthe 0.43767846
Ġstate 4.204171
-building 3.3082104
Ġprocess 0.5375248
.ĊĊ 0.8494408
In 1.3792044
ĠChina 1.3548682
, 0.08899258
Ġthe 0.65045816
Ġestablishment 4.955652
Ġof 0.03452317
Ġstates 4.987828
Ġbore 8.589636
Ġthe 2.0566473
Ġind 5.7117443
el 0.04897656
ible 0.009036178
Ġimprint 1.4129837
Ġof 0.010766473
Ġthe 1.3776132
ĠConf 3.7478473
uc 0.00255545
ian 0.010116562
Ġsocietal 8.226952
Ġhierarchy 4.096783
. 0.38511324
ĠThe 1.8589454
Ġstress 12.489289
Ġon 1.9560066
Ġfil 4.2749643
ial 0.0025943269
Ġpi 0.07939896
ety 1.7478143e-05
Ġand 1.0297201
Ġdefer 4.8449993
ence 0.068559244
Ġfor 5.152535
Ġauthority 2.7827992
Ġfoster 3.9543304
ed 0.0014759371
Ġsocial 4.497596
Ġharmony 5.1440477
Ġand 0.9717296
Ġenabled 5.243493
Ġthe 0.49592227
Ġconsolidation 3.0834439
Ġof 0.06635385
Ġpower 2.8597946
Ġunder 4.935121
Ġa 1.7209467
Ġrobust 6.8461943
Ġcentral 2.9743197
Ġadministration 3.514378
. 0.17564054
ĠThe 1.8174568
Ġconcept 5.6520915
Ġof 0.02210923
Ġthe 1.7513239
ĠMand 4.1714106
ate 0.024817554
Ġof 0.010855388
ĠHeaven 0.0010581758
, 1.2042507
Ġbest 8.105446
owing 0.59252894
Ġlegitimacy 3.432802
Ġupon 1.5009464
Ġrulers 2.336116
, 0.7446867
Ġproved 5.4272175
Ġinstrumental 1.880552
Ġin 0.15368761
Ġthe 0.9433056
Ġcreation 2.8692348
Ġof 0.057636816
Ġstates 3.542499
Ġlike 1.8979654
Ġthe 1.5124004
ĠQin 2.7824655
Ġand 1.2471474
ĠHan 0.31944236
Ġdyn 0.7173809
ast 0.0012635675
ies 9.972867e-05
. 0.8701167
ĠFurthermore 2.6193218
, 0.0007645991
Ġthe 0.4014155
Ġcivil 7.3085184
Ġservice 0.80637026
Ġexamination 2.3426144
Ġsystem 0.64100957
Ġgrounded 8.843676
Ġin 4.741923
ĠConf 0.4276968
uc 0.0012994037
ian 0.009314831
Ġpre 7.632551
cepts 0.018589662
Ġfacilitated 4.1274705
Ġthe 0.2103693
Ġrecruitment 4.2950735
Ġof 0.29910594
Ġcompetent 2.9084706
Ġofficials 1.9310308
Ġwho 2.1821933
Ġupheld 5.6698475
Ġstability 7.34547
Ġand 0.5785099
Ġadvanced 7.7423344
Ġthe 0.5791678
Ġstate 1.9525442
's 4.6634703
Ġinterests 2.1703885
.ĊĊ 0.55728674
Across 5.7261243
Ġthe 0.26602897
ĠIslamic 0.38298604
ĠWorld 0.6905578
, 0.03251375
Ġthe 0.58524764
Ġformation 5.469819
Ġof 0.031942848
Ġstates 1.013432
Ġwas 0.7687515
Ġguided 4.8422976
Ġby 0.063319944
Ġthe 0.8478691
Ġten 4.945158
ets 0.060839213
Ġof 0.05735252
ĠIslamic 1.5713547
Ġjuris 2.3804164
pr 0.0003038842
udence 0.0050206324
Ġand 2.3101275
Ġthe 1.4134986
ĠCal 5.5845585
iph 0.034805514
ate 0.05446275
Ġsystem 3.3072095
. 0.17449111
ĠThe 0.96985245
ĠCal 2.8812535
iph 0.008509253
ate 0.14784001
, 2.0358274
Ġoriginally 5.1500764
Ġinstituted 3.8846405
Ġby 0.6873524
Ġthe 0.84754115
ĠProphet 0.30086064
ĠMuhammad 0.16920957
, 0.55603087
Ġserved 2.3174858
Ġas 0.0927483
Ġa 0.56176585
Ġcentral 3.503044
Ġgoverning 3.3737063
Ġbody 1.3386229
Ġand 2.5820901
Ġplayed 7.0008297
Ġa 0.2639445
Ġpivotal 0.6246678
Ġrole 0.030846888
Ġin 0.016926004
Ġun 8.64403
ification 5.419676
Ġand 0.8201372
Ġgovernance 4.274797
Ġof 1.4817531
ĠIslamic 2.9657612
Ġterritories 2.8127537
. 0.1560825
ĠStrat 11.746938
ag 0.4997903
ems 0.0033819615
Ġof 1.5982755
Ġauthority 1.5739839
, 1.8244228
Ġsuch 0.8384936
Ġas 0.0014912924
Ġerect 10.009399
ing 0.0005429041
Ġa 2.5649655
Ġrobust 5.52074
Ġmilitary 2.304843
Ġand 1.3928903
Ġfostering 4.7201953
Ġcommercial 6.273735
Ġendeavors 3.9832854
, 0.18093301
Ġpropelled 4.7038574
Ġthe 0.42447895
Ġexpansion 3.4040012
Ġof 0.1604981
ĠIslamic 1.6172888
Ġstates 0.47078577
' 6.624954
Ġinfluence 2.621619
Ġand 1.618228
Ġensured 6.5171566
Ġstability 3.3692622
.ĊĊ 2.0377235
In 1.8459101
ĠIndia 1.3976423
, 0.014854813
Ġthe 0.35865322
Ġcaste 4.4065275
Ġsystem 0.12270314
Ġwield 5.829967
ed 0.00020652048
Ġa 0.646556
Ġsignificant 2.602253
Ġimpact 1.3049263
Ġin 2.237351
Ġthe 0.55569565
Ġestablishment 3.5752668
Ġof 0.093044125
Ġstates 0.7462104
. 0.37744033
ĠThe 0.97692186
Ġstrat 4.5426593
ified 3.2141986
Ġsocial 1.3753799
Ġorder 2.2348304
Ġprovided 4.755839
Ġa 0.9632258
Ġblueprint 6.3339047
Ġfor 0.14315318
Ġgovernance 2.3632317
Ġand 1.1999248
Ġdeline 6.113776
ated 0.015031081
Ġa 2.7823899
Ġdistinct 3.276194
Ġpower 6.4892416
Ġhierarchy 1.0298313
. 0.8690147
ĠFor 4.8372974
Ġinstance 1.1190163
, 0.0006413076
Ġthe 0.8124945
ĠMa 6.301264
ury 0.0011493867
an 0.9244027
ĠEmpire 0.93326634
Ġh 8.630159
arn 0.59880483
essed 0.00036299456
Ġthe 0.7711809
Ġcaste 3.6318974
Ġsystem 0.16828364
Ġto 0.49058595
Ġconsolidate 2.4963927
Ġpower 1.0104878
Ġand 0.9961944
Ġstreamline 7.5758405
Ġthe 1.5588268
Ġadministration 1.2510891
Ġof 0.33344612
Ġan 5.981324
Ġexpansive 1.8757776
Ġrealm 3.2345684
.ĊĊ 2.16113
To 4.235598
Ġconclude 2.4683294
, 0.04837522
Ġthe 0.72779816
Ġimport 10.374118
Ġof 0.36774978
Ġsocial 0.70964193
Ġpower 5.4325767
Ġstrategies 3.7261214
Ġin 1.077934
Ġstate 2.4555774
Ġformation 0.8828949
Ġis 1.2872068
Ġim 5.746517
me 0.06507248
asurable 0.016739972
. 0.3371974
ĠThe 1.8846372
Ġfeudal 6.1341233
Ġsystem 1.6554855
Ġin 2.9127975
ĠWestern 0.18813173
ĠEurope 0.015756894
, 0.7019775
Ġthe 0.18582536
ĠConf 1.7439972
uc 0.00013595926
ian 0.0033173307
Ġsocial 2.4518294
Ġhierarchy 0.22460066
Ġin 0.05050519
ĠChina 0.04055903
, 0.029940708
Ġthe 0.5532269
ĠCal 1.3084075
iph 0.0022043784
ate 0.0011283134
Ġsystem 0.33614665
Ġin 0.046362523
Ġthe 0.44367218
ĠIslamic 0.1389264
ĠWorld 0.23249184
, 0.0269522
Ġand 0.06721125
Ġthe 0.028770732
Ġcaste 0.101457484
Ġsystem 0.04305948
Ġin 0.04390876
ĠIndia 0.04112139
Ġall 1.8265408
Ġplayed 2.6228695
Ġpivotal 1.5650903
Ġroles 0.027750343
Ġin 0.019435659
Ġshaping 2.377305
Ġpolitical 3.7848725
Ġframeworks 5.8006916
Ġand 0.9003563
Ġlaying 4.4268594
Ġthe 0.063882165
Ġgroundwork 0.45646986
Ġfor 0.025869068
Ġrobust 5.381525
Ġstates 0.45797586
. 0.7353321
ĠThese 2.7237234
Ġsocial 1.7261654
Ġtactics 2.4401963
Ġfacilitated 5.2764916
Ġpower 5.838812
Ġconsolidation 2.2757657
, 1.2064908
Ġpreservation 8.115567
Ġof 0.40157533
Ġsocial 1.8279482
Ġorder 1.9164286
, 0.0462486
Ġand 0.0849919
Ġimplementation 6.135974
Ġof 0.008561386
Ġefficient 3.871571
Ġgovernance 1.4694893
Ġstructures 3.015079
. 0.9213481
