In 4.7470055
Ġthe 1.7891757
Ġthought 11.002893
Ġ- 8.31198
Ġprov 1.4567462
oking 0.0032742065
Ġmoving 10.6009
Ġpicture 2.4257214
ĠFor 8.1889515
ĠCol 3.8052907
ored 0.025441833
ĠGirls 0.028677367
, 0.40866467
Ġthe 1.7671002
Ġcharacter 3.7724977
ĠTang 3.299334
ie 0.019992376
Ġfaces 7.2481437
Ġthe 1.3197154
Ġhar 5.59212
rowing 0.009445807
Ġexperience 2.6384015
Ġof 0.028652348
Ġrape 2.7062047
. 0.8655426
ĠAs 3.0268707
Ġa 1.5327114
Ġhigh 7.743057
Ġ- 2.411241
Ġschool 2.1958532
Ġstudent 1.2178693
, 0.44578928
ĠI 3.3349075
Ġcouldn 4.8469934
Ġ' 4.4114857
Ġt 4.5871468
Ġhelp 1.2583227
Ġbut 0.08234834
Ġreflect 4.0517325
Ġon 0.22385742
Ġthe 1.1111605
Ġassessments 14.156171
, 4.4778996
Ġimplementation 9.602055
, 0.3784925
Ġand 0.067746006
Ġeducation 5.613326
Ġrequired 6.2697964
Ġto 0.415587
Ġcreate 4.532507
Ġa 0.6436281
Ġcomprehensive 5.1216154
Ġcare 8.288934
Ġplan 0.9325542
Ġfor 0.49877566
ĠTang 1.1264051
ie 0.0024777967
Ġas 3.887082
Ġa 1.6067684
Ġsurvivor 1.7900363
Ġof 0.30559623
Ġrape 0.8568046
. 0.25566784
ĠTo 4.361515
Ġbegin 1.7428585
, 0.38746822
Ġconducting 9.782961
Ġthorough 4.7114573
Ġassessments 0.3606588
Ġis 1.3569651
Ġcrucial 2.393662
Ġin 1.4461459
Ġunderstanding 3.4171708
ĠTang 2.1157577
ie 0.010628128
Ġ' 0.9618652
Ġs 1.6630756
Ġphysical 4.24887
Ġand 0.9352841
Ġemotional 1.0826931
Ġwell 2.708682
Ġ- 1.1036813
Ġbeing 0.013611544
. 0.50317997
ĠThis 3.6134338
Ġincludes 2.0320368
Ġa 2.1437805
esc 20.257908
ul 0.6648057
ap 0.1584295
ian 0.006807499
Ġexaminations 2.8900375
Ġto 1.675841
Ġaddress 4.4626665
Ġpossible 4.4066563
Ġphysical 1.2010535
Ġinjuries 0.84199077
, 1.2157711
Ġsexually 4.782792
Ġtransmitted 0.093531154
Ġinfections 0.974869
, 0.34213927
Ġand 0.45244065
Ġpregnancy 0.5878738
. 0.48842177
ĠAdditionally 2.558236
, 0.01643584
Ġmental 2.93114
Ġhealth 0.18774666
Ġassessments 1.0309963
Ġare 1.0417482
Ġvital 2.771223
Ġto 0.8182379
Ġevaluate 3.5038705
Ġand 4.1185613
Ġtreat 1.6565591
Ġthe 2.0205343
Ġpsychological 1.6963218
Ġimpact 2.239025
Ġof 0.19451389
Ġsuch 4.848382
Ġa 0.56749046
Ġtraumatic 0.38549176
Ġevent 0.70707726
. 0.25686944
ĠUnderstanding 6.9569473
ĠTang 0.8806068
ie 0.0031045116
Ġ’ 5.1968102
Ġs 0.14531311
Ġemotional 3.1133444
Ġstate 0.99031776
, 3.1204395
Ġlevels 7.3068266
Ġof 0.030164547
Ġanxiety 2.2518349
, 0.44229144
Ġdepression 1.8964714
, 0.20300715
Ġand 0.43759793
Ġpotential 5.1164446
Ġpost 1.9213496
Ġ- 0.94944245
Ġtraumatic 0.113674626
Ġstress 0.060909763
Ġdisorder 0.25399747
Ġsymptoms 3.2407327
Ġwill 1.9375921
Ġhelp 1.7077304
Ġtailor 4.0152855
Ġtreatment 3.055272
Ġstrategies 3.9913268
Ġaccordingly 4.6826353
. 0.23504268
ĠOnce 4.55161
Ġassessments 2.7374995
Ġare 0.36244744
Ġcomplete 1.129986
, 0.10438185
Ġimplementation 2.9664514
Ġof 0.36974457
Ġa 1.0121986
Ġcare 1.2572029
Ġplan 0.016978033
Ġinvolves 5.1335955
Ġa 2.5371585
Ġmulti 2.6439767
Ġ- 0.06612547
Ġdisciplinary 0.42807323
Ġapproach 0.7276238
. 1.0580722
ĠTang 1.5490649
ie 0.011317663
Ġwould 2.8495572
Ġbenefit 1.1358383
Ġfrom 0.14832306
Ġa 1.6493235
Ġsupport 3.9498448
Ġnetwork 2.4845123
Ġcomprising 5.747349
Ġmedical 3.7153049
Ġprofessionals 1.0687459
, 0.16622084
Ġgen 11.813102
ial 4.7207503
Ġhealth 0.04089518
Ġtherapists 3.3270934
, 0.043961
Ġand 0.91827923
Ġsocial 2.0305521
Ġworkers 0.2564038
. 0.27668622
ĠProviding 5.8611135
Ġher 4.204776
Ġwith 0.16723846
Ġa 1.4862976
Ġsafe 1.4084623
Ġspace 1.2136791
Ġto 0.38817486
Ġexpress 1.9924636
Ġher 0.42823157
Ġemotions 1.1295382
, 1.5752462
Ġsuch 4.9040484
Ġas 0.011881147
Ġsupport 5.6816354
Ġgroups 0.11030443
Ġfor 2.9007566
Ġsurvivors 1.1425095
Ġof 0.1805985
Ġsexual 1.012316
Ġassault 0.24383943
, 0.2030629
Ġcan 2.3433578
Ġbe 1.6826881
Ġcritical 4.959777
Ġin 0.57494414
Ġpromote 11.401325
Ġhealing 1.356364
Ġand 1.4631664
Ġfacilitating 6.1534114
Ġher 2.5322223
Ġjourney 2.4871082
Ġtowards 1.6416459
Ġrecovery 0.91595364
. 0.15457506
ĠEducation 4.470841
Ġis 0.8761185
Ġa 2.28901
Ġfundamental 3.1088767
Ġcomponent 0.73507065
Ġin 1.5685574
ĠTang 2.2803102
ie 0.001963486
Ġ' 1.4757174
Ġs 0.014267524
Ġcare 0.6088433
Ġplan 0.19227245
. 0.46895543
ĠIt 2.8521066
Ġis 0.3956539
Ġessential 2.0351148
Ġto 0.7456255
Ġprovide 1.7706643
Ġher 0.8012241
Ġwith 0.05367277
Ġaccurate 2.1608093
Ġinformation 0.5009421
Ġregarding 1.1399349
Ġrape 3.0057073
, 0.79841113
Ġconsent 5.1855965
, 0.025077417
Ġand 0.56169784
Ġhealthy 2.7053766
Ġrelationships 0.62023175
. 0.32572487
ĠEduc 4.1647744
ating 0.022183156
Ġher 1.2878346
Ġabout 1.3297434
Ġthe 1.0877105
Ġlegal 3.2536354
Ġprocess 1.8557978
, 1.5251467
Ġher 3.0526223
Ġrights 0.26826665
, 0.57715386
Ġand 0.10566704
Ġavailable 2.385276
Ġresources 0.33421296
, 2.582666
Ġsuch 0.6646334
Ġas 0.0070748054
Ġhot 2.907094
lines 0.025177866
Ġand 0.973563
Ġcounseling 1.8223784
Ġservices 1.0056293
, 0.13782337
Ġwill 1.3905008
Ġempower 1.750986
Ġher 0.256282
Ġto 0.4834588
Ġmake 1.558324
Ġinformed 0.46120128
Ġdecisions 0.17058435
Ġregarding 2.0373874
Ġher 0.16366616
Ġrecovery 3.1208882
. 0.43429536
ĠTang 2.1380029
ie 0.0043812287
Ġshould 3.346552
Ġalso 0.83680564
Ġbe 0.26483348
Ġeducated 1.0280783
Ġabout 0.8467485
Ġself 4.203582
Ġ- 0.08274612
Ġcare 0.5369103
Ġtechniques 2.3808007
, 0.8775484
Ġstress 3.8739095
Ġmanagement 0.37296733
, 0.33827233
Ġand 0.23744802
Ġcoping 2.4611602
Ġmechanisms 1.5128286
, 2.4113116
Ġwhich 1.9096501
Ġcan 1.157427
Ġhelp 1.422693
Ġher 0.71476096
Ġrebuild 5.9466224
Ġher 0.58323824
Ġsense 1.5108981
Ġof 0.010378276
Ġself 0.7540332
Ġand 1.7947136
Ġregain 2.8706033
Ġcontrol 0.8289517
Ġof 0.7531862
Ġher 0.021734286
Ġlife 0.17119817
. 0.3049198
ĠFurthermore 3.9221141
, 0.0072154226
Ġit 2.4176507
Ġis 0.12784748
Ġnecessary 3.653099
Ġto 0.12572713
Ġaddress 3.247225
Ġany 2.7734323
Ġsocietal 5.209509
Ġst 1.6273389
ig 0.031005116
mas 0.003954917
Ġand 1.6908634
Ġbiases 3.1665337
Ġsurrounding 1.716345
Ġrape 0.64328516
Ġsurvivor 6.5307193
. 2.6593823
ĠThrough 4.402545
Ġeducational 4.3768663
Ġworkshops 3.0938125
, 0.82152045
Ġawareness 5.1176167
Ġcampaigns 0.385615
, 0.031337544
Ġand 0.09467479
Ġcommunity 1.743451
Ġoutreach 1.0152997
Ġprograms 1.4387869
, 0.04366402
Ġwe 1.7415166
Ġcan 0.14217776
Ġchallenge 3.5207865
Ġharmful 3.761981
Ġattitudes 2.7913754
Ġand 0.54319805
Ġwork 4.2974696
Ġtowards 0.28636283
Ġa 1.7056303
Ġsupportive 4.7821436
Ġand 1.1837369
Ġempath 3.4481683
etic 0.12646736
Ġenvironment 0.9810253
Ġfor 0.85649645
Ġsubs 14.388149
ister 4.197423
Ġlike 4.9904795
ĠTang 0.011145792
ie 0.00095731666
. 0.5273043
ĠIn 1.8429391
Ġconclusion 0.9103768
, 0.008695054
Ġcraft 12.005121
Ġa 1.2644544
Ġcare 2.073026
Ġplan 0.038956862
Ġfor 0.55136025
ĠTang 0.20954755
ie 0.004278077
Ġrequires 2.194837
Ġmeticulous 6.01985
Ġassessments 0.8850371
, 0.2636328
Ġcomprehensive 2.779946
Ġimplementation 0.3831034
Ġstrategies 3.0599754
, 0.028597323
Ġand 0.028702272
Ġan 4.041458
Ġstress 12.298138
Ġon 0.5721276
Ġeducation 0.2510753
. 0.31669867
ĠBy 2.4073322
Ġproviding 1.9292395
Ġthe 4.829339
Ġnecessary 1.5261678
Ġmedical 3.4873052
, 0.48853853
Ġmental 1.0495574
, 1.0298965
Ġand 0.14316991
Ġemotional 1.6065922
Ġsupport 0.5839055
, 0.308548
Ġwe 1.1198578
Ġcan 0.08346852
Ġhelp 0.9984272
Ġempower 4.813874
ĠTang 0.5423205
ie 0.002615371
Ġto 0.7224438
Ġreclaim 2.6754322
Ġher 0.1726234
Ġidentity 3.6964867
Ġand 0.47219795
Ġheal 3.1448932
Ġfrom 0.37515545
Ġthe 1.1987451
Ġtrauma 1.080854
Ġof 0.23171662
Ġrape 0.2733259
. 1.022521
ĠAs 4.0348864
Ġa 0.87745476
Ġhigh 2.135593
Ġ- 0.32242006
Ġschool 0.018433083
Ġstudent 0.030080326
, 0.046620723
Ġlearning 9.788179
Ġabout 0.20526323
Ġthe 1.1754742
Ġcomplexities 3.931727
Ġof 0.23788527
Ġsuch 4.4084754
Ġcare 6.464294
Ġplans 0.5339394
Ġemphasizes 7.968164
Ġthe 0.13081114
Ġimportance 0.5812903
Ġof 0.03864311
Ġcompassion 4.833016
, 0.6928232
Ġempathy 0.88012916
, 0.019475175
Ġand 0.038751494
Ġeducation 3.616883
Ġin 0.5008931
Ġsupporting 3.4147327
Ġsurvivors 0.7057348
Ġin 4.416164
Ġour 2.5009825
Ġcommunities 1.1482413
. 0.98041385
