Joy 9.793309
ce 1.3402745
ĠCarol 3.992838
ĠO 0.047966477
ates 0.00044151678
' 4.137626
Ġshort 3.8567696
Ġstory 0.3170494
, 1.6847501
Ġ" 0.30941424
Where 6.066471
ĠAre 1.0650107
ĠYou 0.26255557
ĠGoing 0.045923594
, 0.26600903
ĠWhere 0.03771598
ĠHave 0.011301512
ĠYou 0.0074192025
ĠBeen 0.022216378
?", 1.9927416
Ġleaves 7.932659
Ġreaders 2.895705
Ġwith 0.94322777
Ġa 0.8739768
Ġlingering 4.7836256
Ġsense 1.2687144
Ġof 0.08928076
Ġune 1.5198402
ase 0.2925472
Ġand 1.6915634
Ġambiguity 4.5393586
Ġregarding 4.4528694
Ġthe 0.5969314
Ġfate 3.25677
Ġof 0.056702375
Ġthe 1.0526663
Ġprotagonist 1.9664739
, 0.78264236
ĠConnie 6.641244
. 1.17768
ĠThrough 4.895564
Ġthe 1.0386456
Ġmaster 9.2369585
ful 0.239627
Ġuse 0.43489453
Ġof 0.010240934
Ġsymbolism 3.0774944
Ġand 0.9256919
Ġliterary 3.9535537
Ġdevices 0.49241874
, 0.19076937
ĠO 0.41379362
ates 0.0051762396
Ġskill 5.314748
fully 0.00010998019
Ġcrafts 6.0573
Ġa 0.47478583
Ġnarrative 3.665434
Ġthat 0.5875916
Ġallows 4.472013
Ġfor 3.0561016
Ġmultiple 2.541805
Ġinterpretations 0.34409901
, 2.2641618
Ġall 3.6883736
uding 4.106079
Ġto 0.053214196
Ġthe 0.74190235
Ġpotential 5.544869
Ġdangers 4.456406
Ġand 2.0386114
Ġconsequences 2.1154292
Ġfaced 6.5574903
Ġby 0.104258776
Ġyoung 5.71735
Ġwomen 1.0632235
Ġin 1.2788388
Ġsociety 4.0119443
. 0.98597604
ĠThere 5.9126287
Ġare 0.34653303
Ġindeed 7.098649
Ġconnections 8.970969
Ġbetween 0.38013214
Ġthe 1.0760046
Ġevents 4.0063467
Ġin 1.5318253
Ġthe 0.74073684
Ġstory 0.21488239
Ġand 0.100366145
Ġreal 2.306307
-life 1.2435501
Ġinstances 3.687972
Ġof 0.68954724
Ġsexual 1.8281883
Ġassault 0.9720697
Ġand 1.3502473
Ġabduction 6.230804
Ġthat 2.7309527
Ġresonate 7.012894
Ġdeeply 2.4111028
Ġwith 0.431943
Ġreaders 1.6617236
.Ċ 8.28794
At 5.292311
Ġfirst 2.3817332
Ġglance 0.44311914
, 0.038736004
Ġthe 1.0416266
Ġending 6.4589205
Ġof 0.28909135
Ġthe 0.64134127
Ġstory 0.09093951
Ġappears 1.4015725
Ġbleak 4.6590757
Ġand 0.8918252
Ġtragic 3.2683537
, 1.1013582
Ġsuggesting 5.0443673
ĠConnie 3.69793
's 0.5873312
Ġdemise 4.3020077
Ġat 1.7197102
Ġthe 0.015264851
Ġhands 0.11121341
Ġof 0.0035498205
Ġthe 2.1896062
Ġdisturbing 7.948054
Ġcharacter 3.6581101
Ġknown 4.403437
Ġas 0.21957421
ĠArnold 9.47279
ĠFriend 6.597799
. 0.23926727
ĠHis 4.68005
Ġpresence 2.7534454
Ġis 1.7589964
Ġsuff 9.885075
used 2.887591
Ġwith 0.25011277
Ġsymbolism 5.5937414
, 0.9481148
Ġrepresenting 4.2211695
Ġthe 0.929907
Ġevils 6.932207
Ġand 2.179152
Ġdangers 1.742452
Ġthat 1.4435674
Ġlur 1.7917631
k 0.0033175691
Ġoutside 5.196418
Ġa 4.490417
Ġyoung 1.4995748
Ġgirl 1.6918876
's 0.033923686
Ġshelter 4.4400873
ed 0.49894932
Ġlife 2.0445218
. 0.3830864
ĠHis 3.18959
Ġdemonic 8.095073
Ġappearance 2.1523006
, 1.9025463
Ġexaggerated 7.3791456
Ġwith 4.374217
Ġthe 2.974833
Ġdescription 7.5559
Ġof 0.16542208
Ġhis 0.6492993
Ġ" 2.838667
sh 4.5208254
ag 0.9925368
gy 0.009905416
, 1.9922718
Ġsh 4.3659234
abby 2.0826054
, 1.4589367
Ġblack 4.8396893
Ġhair 1.6472784
Ġthat 4.641396
Ġlooked 3.5491118
Ġcrazy 9.551118
Ġas 3.5898604
Ġa 1.3797959
Ġwig 5.033253
," 0.8138465
Ġimplies 4.8892345
Ġa 2.3089652
Ġsinister 3.3439238
Ġintent 5.556013
Ġright 9.50706
Ġfrom 0.32689878
Ġthe 0.030446481
Ġstart 0.8615621
. 0.70051146
ĠO 3.7782488
ates 0.0048603807
Ġalso 2.5151258
Ġmakes 3.322351
Ġuse 1.927036
Ġof 0.0033705581
Ġirony 4.7284927
Ġwhen 3.791121
ĠArnold 2.2391014
ĠFriend 0.3393062
Ġdrives 8.283756
Ġa 1.9415792
Ġgolden 9.246053
Ġconvertible 3.9243188
, 3.0848262
Ġa 2.0669985
Ġsymbol 1.2601025
Ġoften 4.8938804
Ġassociated 0.6024771
Ġwith 0.0075827283
ĠAmerican 6.3186736
Ġdreams 5.0711603
Ġand 0.56483877
Ġfreedom 3.0336618
, 0.98531234
Ġturning 7.8958807
Ġit 2.2946458
Ġinto 0.088876314
Ġa 0.34238985
Ġtwisted 7.425198
Ġemblem 6.37066
Ġof 0.15465432
Ġmale 4.1811132
vol 4.5172534
ence 0.0033256458
.Ċ 2.5134363
The 1.9049984
Ġauthor 4.4030294
Ġemploys 4.3701158
Ġvarious 3.6677275
Ġliterary 0.7772331
Ġdevices 0.20067166
Ġto 0.8355673
Ġheight 2.9282687
en 0.00069015543
Ġthe 0.1899751
Ġtension 1.5358406
Ġand 1.2306176
Ġfo 6.5938325
resh 0.00016492206
adow 0.004086474
Ġthe 0.6415136
Ġtragic 3.365779
Ġoutcome 2.0247169
. 1.5585531
ĠThe 1.5090154
Ġtelephone 11.6563225
Ġconversations 4.4535933
Ġbetween 0.5905699
ĠConnie 0.7548298
Ġand 0.049936295
ĠArnold 0.35688266
ĠFriend 0.1896651
Ġare 1.3073242
Ġladen 5.7913084
Ġwith 0.00726419
Ġdouble 4.801772
Ġentend 1.2671134
re 1.4224422
Ġand 1.2800943
Ġsymbolism 4.2149677
, 1.0989488
Ġparticularly 4.69342
Ġthrough 5.1460104
Ġthe 0.3852709
Ġincess 9.002201
ant 0.016387764
Ġrepetition 1.4860649
Ġof 0.03289159
Ġphrases 3.412938
Ġsuch 0.7451917
Ġas 0.005441501
Ġ" 0.19269304
G 6.47294
onna 5.097335
Ġget 2.4772358
Ġya 3.4798512
, 1.6855907
Ġbaby 3.4878933
." 1.8366456
ĠThis 2.5905237
Ġrepetition 2.0699265
Ġeng 8.5390835
enders 0.097736396
Ġa 0.7243617
Ġsense 0.8437847
Ġof 0.0142024085
Ġdread 2.4895244
Ġand 0.9907237
Ġemphasizes 7.4129863
Ġthe 0.34722218
Ġrelentless 8.086783
Ġpursuit 2.5138443
Ġof 0.30386153
Ġyoung 5.5667515
Ġwomen 0.6489118
Ġin 2.8776894
Ġreal 6.158806
-life 1.0776747
Ġinstances 2.0044298
Ġof 0.23846292
Ġsexual 0.34373346
Ġassault 0.31305966
. 1.1515338
ĠThe 1.4341029
Ġdistress 11.1886425
ing 0.7316055
Ġreality 5.1575794
Ġbehind 3.8444843
Ġthe 0.76626575
Ġnarrative 5.285996
Ġis 0.882263
Ġaccent 4.612985
uated 0.00023452967
Ġas 4.3402767
Ġthe 1.225447
Ġstory 1.9021035
Ġprogresses 0.63714266
, 0.63369244
Ġwith 2.6219292
ĠO 4.152219
ates 0.0018869919
Ġmaster 7.107809
fully 0.012577705
Ġbuilding 4.0469685
Ġtension 2.3501139
Ġthrough 1.9706414
Ġthe 0.9078304
Ġuse 1.5847125
Ġof 0.005474583
Ġsuspense 3.5508332
, 2.5519204
Ġclimax 4.4530487
, 0.43815944
Ġand 0.101842776
Ġan 4.5347824
Ġabrupt 2.8533006
Ġending 1.3134074
, 3.4804301
Ġleaving 2.0683289
ĠConnie 6.346382
's 1.4509813
Ġfate 0.25615227
Ġuncertain 2.1477349
.Ċ 1.4012966
One 4.014921
Ġinterpretation 4.529863
Ġof 0.25833356
ĠConnie 4.422465
's 0.027369382
Ġfate 0.6089363
Ġis 1.0481586
Ġthat 0.39713192
Ġher 3.4145098
Ġabduction 2.2554848
Ġby 2.3316836
ĠArnold 0.39368472
ĠFriend 0.0074086813
Ġrepresents 2.6572452
Ġthe 1.0766504
Ġloss 4.4268026
Ġof 0.03182634
Ġinnocence 0.5538437
Ġand 1.2479223
Ġthe 1.1853539
Ġdangers 3.424959
Ġfaced 3.1807892
Ġby 0.041564155
Ġyoung 0.31771627
Ġwomen 0.5119211
Ġin 0.53284425
Ġsociety 0.7552572
. 0.14133781
ĠConnie 2.7909591
's 0.92201155
Ġyouthful 6.2207117
Ġna 0.9229789
iv 0.6444724
ety 0.41644388
Ġand 1.045908
Ġsuperficial 7.3216877
ity 1.0498381
, 2.648829
Ġdepicted 6.5092974
Ġthrough 1.2052768
Ġher 0.6573033
Ġobsession 4.6178455
Ġwith 0.029788328
Ġher 2.8896158
Ġappearance 3.3493826
Ġand 0.6681021
Ġpopularity 6.2869024
, 0.2641658
Ġcould 5.255087
Ġbe 0.69833195
Ġseen 1.7633829
Ġas 0.0836693
Ġthe 2.9833946
Ġvulnerabilities 8.360626
Ġthat 0.84263664
Ġassail 8.165582
ants 4.8901925
Ġexploit 1.8876108
. 1.9224795
ĠArnold 1.4399793
ĠFriend 0.014614368
's 1.014633
Ġmanipulation 4.424202
Ġand 1.7707843
Ġcoercion 4.4014797
Ġmirror 8.062529
Ġthe 0.42424622
Ġtactics 3.695129
Ġused 0.8379019
Ġby 0.19610547
Ġpredators 1.8538283
, 2.1010315
Ġand 2.7265048
Ġthe 1.6274122
Ġstory 3.7428396
Ġserves 3.3019633
Ġas 0.25367922
Ġa 0.2690207
Ġchilling 4.134408
Ġreminder 1.1488913
Ġof 0.5981106
Ġthe 0.2139599
Ġreal 4.8827925
-life 0.4078502
Ġdangers 1.2020794
Ġfaced 1.2796676
Ġby 0.008558193
Ġyoung 0.2912606
Ġwomen 0.3425763
.Ċ 1.6495402
However 3.7967682
, 0.004893589
Ġanother 1.756267
Ġinterpretation 0.21106593
Ġsuggests 2.4723835
Ġthat 0.12852858
Ġthe 1.5799694
Ġending 2.8844905
Ġof 0.51055425
Ġthe 0.06276378
Ġstory 0.0226513
Ġis 1.0049314
Ġa 1.6355265
Ġmetaphor 1.8014663
ical 1.5412258
Ġrepresentation 1.5014914
Ġof 0.028749539
Ġthe 0.8682449
Ġinternal 7.082856
Ġstruggle 1.5560604
Ġwithin 4.998807
ĠConnie 0.31508216
's 1.5086403
Ġmind 0.67286336
. 0.6708327
ĠArnold 3.0237916
ĠFriend 0.01071859
Ġcan 6.841784
Ġbe 0.1907011
Ġseen 0.46377313
Ġas 0.07105105
Ġa 0.7735934
Ġperson 4.540943
ification 0.09987262
Ġof 0.029738454
ĠConnie 2.2605526
's 0.082426615
Ġown 1.7498083
Ġfears 2.4493153
Ġand 0.4140991
Ġinse 1.0137959
curities 0.00010807293
, 0.43368152
Ġthe 3.3143458
Ġembodiment 4.15751
Ġof 0.016819574
Ġthe 1.1233869
Ġconsequences 7.234351
Ġof 0.8042564
Ġher 1.12395
Ġactions 1.3775172
. 0.55121857
ĠThe 1.7146614
Ġstory 2.7569373
Ġhighlights 4.6016684
Ġthe 0.71503913
Ġdangerous 4.674919
Ġallure 4.540901
Ġand 2.6960049
Ġconsequences 3.6266334
Ġof 0.17309773
Ġwanting 6.9243984
Ġto 0.19639507
Ġgrow 8.362891
Ġup 0.063907556
Ġtoo 0.66503
Ġfast 0.57998586
, 0.7326053
Ġsymbol 6.818088
ized 0.89013886
Ġby 0.27461183
ĠConnie 0.7646505
's 0.06328581
Ġrebell 7.2081337
ious 0.002553308
Ġbehavior 2.1665764
. 2.0482054
ĠThe 1.8030325
Ġending 4.557383
Ġthus 5.5403147
Ġbecomes 3.7799954
Ġa 0.39314258
Ġmetaphor 1.0179299
ical 0.7585427
Ġwarning 4.5574017
Ġabout 2.732512
Ġthe 0.16723926
Ġdangers 0.6911847
Ġof 0.550147
Ġsucc 4.786745
umbing 0.00044353955
Ġto 0.0066991425
Ġsocietal 3.6177714
Ġpressures 0.21341422
Ġand 0.66049355
Ġthe 1.669362
Ġloss 5.420846
Ġof 0.0058754636
Ġone 1.4365909
's 0.00582973
Ġidentity 3.2678046
.Ċ 0.994433
The 1.8218056
Ġevents 5.4277496
Ġdepicted 1.9437029
Ġin 0.04506695
ĠO 3.538511
ates 0.0021776236
' 0.07346418
Ġstory 0.52668035
Ġund 11.456205
eni 0.01232881
ably 7.2907846e-05
Ġdraw 6.389253
Ġconnections 3.631355
Ġto 1.0332217
Ġreal 0.2576711
-life 0.048046354
Ġinstances 0.5153147
Ġof 0.023242217
Ġsexual 0.087165534
Ġassault 0.18241662
Ġand 0.44701403
Ġabduction 0.21293667
. 0.5854964
ĠThe 1.5025162
Ġpower 5.870031
Ġdynamics 2.9288375
, 3.6143026
Ġmanipulation 5.042847
, 0.33811355
Ġand 0.1705762
Ġthreats 3.4863503
Ġemployed 5.6986823
Ġby 0.08034338
ĠArnold 1.4363606
ĠFriend 0.0023261716
Ġreflect 4.644543
Ġthe 0.38653314
Ġtactics 2.2386475
Ġused 0.4518839
Ġby 0.103284635
Ġperpetrators 3.1405215
Ġin 1.991467
Ġreal 1.0201441
-life 0.122434855
Ġcases 3.057909
. 1.2264932
ĠBy 5.028985
Ġillustrating 5.10717
Ġthe 0.5458907
Ġdangers 1.2176754
Ġlurking 5.294713
Ġoutside 0.35441092
Ġthe 1.485612
Ġfamiliar 6.575445
Ġconfines 2.3084745
Ġof 0.012571576
Ġa 0.7678358
Ġteenage 4.398913
Ġgirl 0.066745564
's 0.012781562
Ġworld 1.9021084
, 0.052149754
ĠO 0.54445195
ates 0.0008647724
Ġimplicitly 7.24635
Ġcritiques 6.164024
Ġsocietal 4.1902366
Ġattitudes 1.9712685
Ġand 1.3285601
Ġsheds 8.45325
Ġlight 0.07707691
Ġon 0.028951975
Ġthe 0.19024852
Ġimportance 4.428462
Ġof 0.011016941
Ġvigil 5.9864845
ance 0.0013908312
Ġand 0.6066361
Ġself 2.0678592
-aware 1.6155733
ness 0.00038682064
.Ċ 1.2425246
In 3.2657752
Ġconclusion 2.0723019
, 0.0027136921
Ġthe 1.28891
Ġending 2.4018984
Ġof 0.033677746
Ġ" 1.3251594
Where 0.0017179005
ĠAre 0.027033878
ĠYou 0.002895929
ĠGoing 0.0009566014
, 0.021073366
ĠWhere 0.0029182807
ĠHave 0.0028536133
ĠYou 0.0062295217
ĠBeen 0.024516432
?" 0.15120026
Ġinvites 6.556342
Ġmultiple 1.875067
Ġinterpretations 0.08367258
, 0.9551082
Ġeach 4.133477
Ġsuggesting 4.5551558
Ġthe 2.3223314
Ġhar 10.045868
rowing 0.0039303373
Ġconsequences 1.5586888
Ġfaced 2.7140226
Ġby 0.0034190316
Ġyoung 0.4467718
Ġwomen 0.09437132
Ġin 0.43690845
Ġsociety 0.4994739
. 0.15351534
ĠJoyce 7.737923
ĠCarol 0.008077139
ĠO 0.0014440456
ates 0.0005857991
Ġexpert 5.479484
ly 0.00024346994
Ġemploys 3.3154922
Ġsymbolism 0.9768867
Ġand 0.38828495
Ġliterary 0.046792615
Ġdevices 0.036664102
Ġto 0.15806286
Ġunderline 7.336026
Ġthe 0.17671654
Ġpotential 4.38589
Ġdangers 0.1061322
Ġand 0.40037465
Ġfears 8.166167
Ġthat 0.9375696
Ġexist 4.626692
Ġbeyond 2.7727823
Ġthe 0.49178773
Ġsurface 5.7917857
Ġof 0.93865216
Ġseemingly 7.326026
Ġordinary 2.3437636
Ġlives 0.7639642
. 0.43601075
ĠThe 1.2843258
Ġconnections 7.5298038
Ġbetween 0.45391405
Ġthe 0.33104953
Ġevents 0.4849758
Ġin 0.58495843
Ġthe 0.0758246
Ġstory 0.028975029
Ġand 0.022115067
Ġreal 0.19123697
-life 0.0105466265
Ġinstances 0.1951699
Ġof 0.012875126
Ġsexual 0.017352656
Ġassault 0.02342098
Ġand 0.20730098
Ġabduction 0.041363902
Ġunderscore 4.394641
Ġthe 0.0751586
Ġrelevance 4.2024646
Ġand 1.6223032
Ġimpact 4.5350184
Ġof 0.052293107
Ġthe 0.60161424
Ġstory 0.68583345
, 1.7281765
Ġreminding 2.6452
Ġreaders 0.28629702
Ġof 0.62651104
Ġthe 0.02710129
Ġongoing 6.033231
Ġstruggles 4.198643
Ġfaced 0.8721152
Ġby 0.0032987937
Ġcountless 6.462845
Ġindividuals 4.4087563
Ġin 2.0198207
Ġsociety 1.1196144
Ġtoday 3.0857759
. 1.0175256
