Environmental 9.074415
ĠAspect 9.814777
ĊĊ 2.6222441
Ens 7.5729575
uring 0.046271596
Ġthe 1.516707
Ġsecurity 4.74473
Ġof 0.37223107
Ġan 5.6053524
Ġinfant 8.842529
Ġbecomes 7.180681
Ġthe 1.5678859
Ġprimary 2.3060489
Ġand 4.181123
Ġmost 1.4370339
Ġcrucial 3.3599393
Ġduty 3.8254638
Ġof 0.25571907
Ġparents 1.9189132
. 0.4555377
ĠParticularly 6.898138
Ġin 2.3131726
Ġthe 0.9368928
Ġinitial 3.219281
Ġyear 3.059083
Ġof 0.47704
Ġlife 1.6635119
, 0.22895265
Ġthe 1.5667616
Ġinfant 2.149248
Ġis 0.95670533
Ġincapable 5.858453
Ġof 0.32103786
Ġshielding 5.3257337
Ġitself 1.1591363
Ġfrom 0.80484146
Ġdetrimental 7.829713
Ġenvironmental 1.4894218
Ġelements 2.3070683
. 0.53845066
ĠInstances 9.148104
Ġof 0.37899914
Ġsuch 1.7720608
Ġdamaging 4.09105
Ġimpacts 4.971344
Ġcould 3.2022738
Ġinclude 2.0961618
Ġair 3.208421
Ġand 3.2789707
Ġwater 0.27539605
Ġcontamination 1.7185714
, 0.22912718
Ġexcessive 4.12782
Ġsunlight 3.7522464
Ġexposure 1.7052923
, 0.15925327
Ġor 3.223905
Ġdirt 7.796155
Ġand 1.1250446
Ġchemicals 4.521675
. 1.4620497
ĠThis 4.0145607
Ġstudy 5.1210732
Ġexamines 3.2040412
Ġthe 0.3956804
Ġdetrimental 5.722168
Ġenvironmental 1.4367048
Ġelements 2.3746436
Ġfor 4.8847504
Ġan 2.0308201
Ġinfant 0.023788095
Ġunder 5.457591
Ġone 1.8451021
Ġyear 0.13851796
Ġold 1.2257001
Ġand 1.4620605
Ġproposes 3.6095123
Ġhealth 6.8286624
Ġenhancement 5.972933
Ġto 5.617028
Ġshield 5.4416647
Ġnewborn 6.078281
s 0.41354856
Ġfrom 0.35575178
Ġharm 5.108595
.ĊĊ 0.6415223
Sources 8.237294
Ġstress 12.579067
Ġthat 0.71563053
Ġin 4.161209
Ġ 3.6592581
201 0.7453657
2 2.1930532
, 0.27696666
Ġnearly 4.046301
Ġtwo 4.070402
Ġmillion 0.53565836
Ġchildren 1.6723531
Ġunder 1.1567254
Ġthe 0.6799079
Ġage 0.009414392
Ġof 0.00979965
Ġfive 0.749392
Ġglobally 5.710609
Ġper 3.0633101
ished 0.0019056665
Ġdue 1.4137504
Ġto 0.0031676218
Ġthe 2.585866
Ġenvironment 3.7780588
Ġ(“ 7.2466803
Children 2.817868
’s 1.9061579
Ġenvironmental 3.1567645
Ġhealth 0.084161244
,” 1.4695017
Ġn 1.5464023
.d 0.08094329
.). 0.15710557
ĠThe 1.8570421
Ġreasons 6.0962152
Ġwere 4.4901214
Ġrespiratory 5.140398
Ġinfections 0.9785224
, 0.34786725
Ġmalaria 2.3964605
, 0.048750076
Ġand 1.8022244
Ġvarious 6.940739
Ġwounds 8.688516
Ġand 2.5069778
Ġinjuries 1.1994096
. 0.40765586
ĠThe 1.9324707
Ġmost 3.453808
Ġperil 5.050052
ous 0.0050168363
Ġaspect 3.8655927
Ġis 1.5423799
Ġthat 0.8357305
Ġonce 8.225067
Ġendured 11.486375
, 0.281586
Ġillnesses 5.8134723
Ġand 2.453611
Ġwounds 2.1407745
Ġcan 2.1206927
Ġimpact 4.497136
Ġthe 0.8036407
Ġchild 2.1637926
’s 0.45335105
Ġsubsequent 6.499511
Ġgrowth 1.677313
Ġand 0.463513
Ġdevelopment 0.25828597
Ġin 4.0798697
Ġadolescents 11.781626
.ĊĊ 3.9186358
The 1.9427657
Ġprimary 3.8657155
Ġenvironmental 1.8547513
Ġelement 3.379527
Ġis 2.169258
Ġair 1.2345133
Ġand 3.5704677
Ġwater 0.047635898
Ġcontamination 0.6654469
.ĊĊ 5.969024
Ad 7.925473
verse 0.3319129
Ġenvironmental 1.655784
Ġconsequences 5.3202114
Ġand 5.328062
Ġpollution 2.8082855
Ġsignificantly 5.788511
Ġinfluence 2.0911698
Ġsickness 9.918876
, 2.2968714
Ġincap 7.295291
acity 0.2884927
, 0.099957526
Ġand 0.19987117
Ġin 6.8898816
Ġsome 1.2177775
Ġinstances 1.6195439
, 0.36985385
Ġdeath 0.8639704
. 0.5132078
ĠTherefore 5.6118217
, 0.029109465
Ġamong 7.484057
Ġthe 0.69309086
Ġfacets 9.02231
Ġimplicated 8.253427
Ġin 0.24342477
Ġthis 3.3427782
Ġelement 5.6198177
Ġare 1.0097609
Ġair 1.9103198
Ġcontamination 2.349673
, 0.517218
Ġinsufficient 6.2924414
Ġwater 1.4862752
, 1.442418
Ġand 0.65940994
Ġharmful 5.3529396
Ġchemicals 1.6370012
Ġand 3.2250113
Ġwaste 2.3528545
Ġthat 4.51899
Ġalso 6.5917687
Ġcont 5.1200323
am 0.0009437421
inate 1.9361265e-07
Ġeverything 8.86707
. 1.9303107
ĠAmong 5.357416
Ġthe 0.39723483
Ġhazards 6.2019176
Ġare 2.020375
Ġ“ 5.6781983
lower 7.3501377
-res 7.115523
pir 0.030103235
atory 0.00788023
Ġinfections 0.50374573
, 0.31715247
Ġdiarr 1.8506191
he 0.26431882
al 0.0073106955
Ġdiseases 0.46734107
, 0.05402961
Ġbrain 8.858714
Ġdamage 0.7991868
Ġand 2.835414
Ġinflammation 8.949355
, 0.62789065
Ġblood 6.7187786
Ġdisorders 1.1143575
, 0.115597226
Ġand 1.2880293
Ġja 10.3202095
und 0.00019710339
ice 0.0038090998
” 0.65702915
Ġ(“ 1.2918277
Air 4.926691
ĠPollution 1.4407499
,” 1.0333761
Ġn 0.32828307
.d 0.002808083
., 3.2515767
Ġpara 0.7826691
. 0.09247023
Ġ 0.08769922
2 1.544437
). 0.56780726
ĠAir 3.4260426
Ġpollution 0.965745
Ġcan 2.5973353
Ġbe 1.5141066
Ġrisky 8.341529
Ġduring 4.417838
Ġthe 1.5565943
Ġmother 5.82882
’s 0.042366143
Ġpregnancy 0.14280371
Ġsince 3.6519213
Ġalready 12.056394
Ġat 3.798252
Ġthis 1.2781558
Ġstage 0.869464
, 0.67353404
Ġthe 0.72213215
Ġinfant 2.6355295
’s 1.4138396
Ġhealth 2.9255161
Ġwill 5.0947137
Ġdeterior 4.6018076
ate 0.0016405465
. 0.96638983
ĠIn 2.8454332
Ġaddition 1.3993351
Ġto 2.0092545
Ġchemicals 6.868653
, 0.90225
Ġthere 3.8285642
Ġmay 4.080326
Ġalso 1.4996715
Ġbe 0.032549858
Ġharmful 3.311624
Ġparticles 2.9677067
Ġof 3.7982697
Ġdirt 2.9331145
Ġand 1.2152301
Ġdust 0.99454534
Ġin 1.6475272
Ġthe 0.12318249
Ġair 0.13180538
, 1.6305935
Ġwhich 0.53895
Ġcan 1.2535113
Ġenter 3.4975824
Ġthe 0.18579537
Ġinfant 1.865344
’s 0.064228565
Ġbody 1.2813476
Ġthrough 0.97089314
Ġthe 0.34793377
Ġrespiratory 1.6327755
Ġtract 0.9749333
.ĊĊ 2.067734
Poll 5.961627
uted 0.9633279
Ġwater 0.46899712
Ġor 5.5377364
Ġabsence 6.0760365
Ġof 0.065140605
Ġclean 1.6143475
Ġwater 0.24414773
Ġfor 3.3466802
Ġthe 2.1536217
Ġinfant 0.79992354
Ġand 3.328854
Ġfamily 3.1706977
Ġcan 1.6878725
Ġbe 2.0463037
Ġvery 4.514766
Ġsevere 5.383081
. 0.7832154
ĠThis 3.213959
Ġissue 3.412418
Ġis 0.98688984
Ġparticularly 2.5448136
Ġacute 2.209008
Ġin 0.23264839
Ġdeveloping 0.85538244
Ġnations 1.7388067
, 1.2653778
Ġwhere 0.5241351
Ġpeople 3.761161
’s 4.1283617
Ġaccess 1.6888126
Ġto 0.0112913735
Ġwater 1.9028959
Ġresources 4.694388
Ġcan 4.3765016
Ġbe 0.13913295
Ġseverely 4.1354218
Ġrestricted 1.0840149
. 0.44030073
ĠIt 3.8779626
Ġis 0.56189936
Ġimportant 3.4781997
Ġto 0.13832645
Ġnote 1.4601723
Ġthat 0.054516386
Ġinfants 4.217567
Ġare 1.333891
Ġgiven 8.66737
Ġwater 0.93781364
Ġonly 3.346486
Ġon 4.935959
Ġthe 1.2428511
Ġrecommendation 2.1827602
Ġof 0.032917768
Ġa 0.45828196
Ġdoctor 1.0156437
Ġin 4.515408
Ġthe 0.7243063
Ġfirst 0.69036025
Ġmonths 2.2339344
Ġof 0.2612671
Ġpregnancy 6.9315257
. 0.6332532
ĠHowever 2.8459828
, 0.001310121
Ġwater 3.6904676
Ġplays 4.3832226
Ġa 0.36452433
Ġcrucial 1.4136115
Ġrole 0.119947284
Ġin 0.08974083
Ġthe 0.6716705
Ġoperation 8.678499
Ġof 0.05329307
Ġthe 0.82562214
Ġinfant 2.1328144
’s 0.03987048
Ġbody 0.85635793
Ġand 2.0389833
Ġmust 3.740036
Ġfulfill 5.9335337
Ġspecific 3.2706242
Ġcriteria 1.8231432
Ġto 2.7594385
Ġensure 1.8127054
Ġsafety 3.1661944
. 0.5869565
ĠMinimal 10.634357
Ġrepercussions 11.931463
Ġcan 2.4969783
Ġbe 0.8570629
Ġpoisoning 6.7682705
Ġor 1.7994363
Ġallergies 6.67712
, 1.345748
Ġwhich 1.9468738
Ġcan 1.0404347
Ġevolve 6.67587
Ġinto 0.17976423
Ġmore 1.5004758
Ġsevere 0.6126558
Ġailments 3.0139112
.ĊĊ 1.5108955
Another 2.3661797
Ġelement 3.6516376
Ġof 2.2276034
Ġdetrimental 4.7695007
Ġeffects 3.5152159
Ġon 0.8762917
Ġthe 0.71709454
Ġinfant 0.93183
Ġduring 6.977575
Ġthe 0.51877314
Ġinitial 2.1133459
Ġfew 6.317975
Ġyears 1.6842067
Ġthat 7.1250615
Ġare 3.255486
Ġassociated 3.4249017
Ġwith 0.010389487
Ġenvironmental 2.3816721
Ġpollution 3.137036
Ġis 0.31848782
Ġharmful 3.6444888
Ġchemicals 0.3162489
Ġand 0.37307093
Ġtrash 5.271695
. 0.3819964
ĠThis 3.009986
Ġis 2.8788688
Ġbecause 3.4100885
Ġinfants 3.6014338
Ġstart 6.7987204
Ġto 0.95845526
Ġexplore 2.4542782
Ġthe 0.6368719
Ġworld 0.625889
Ġaround 0.9192768
Ġthem 0.04020811
Ġafter 5.4420376
Ġgaining 5.2555213
Ġthe 2.1438093
Ġability 0.4864113
Ġto 0.024220696
Ġmove 1.3378916
. 1.4431435
ĠHence 4.927816
, 0.041026995
Ġone 5.725002
Ġof 0.37196526
Ġthe 0.13069619
Ġmethods 4.3936043
Ġto 1.5586778
Ġget 3.8135946
Ġacquainted 1.4053519
Ġwith 0.044714894
Ġthe 0.31410494
Ġnew 3.5930738
Ġis 5.468705
Ġthrough 2.7099106
Ġtouch 2.4871078
Ġand 1.4591792
Ġtaste 1.039724
Ġtesting 7.3891025
. 0.5661973
ĠTherefore 2.7417195
, 0.005673626
Ġthere 3.8974462
Ġis 0.24655752
Ġa 0.24423505
Ġchance 3.1769812
Ġof 1.3181797
Ġencountering 4.5623503
Ġsubstances 4.2563744
Ġthat 0.53394467
Ġmay 2.2925358
Ġbe 0.7819934
Ġscattered 10.743397
Ġon 1.6126851
Ġthe 0.17127502
Ġground 0.82513696
. 2.0341225
ĠInstances 7.082765
Ġmay 2.779346
Ġbe 1.9042058
Ġchemical 4.4047494
Ġpoisoning 7.4437475
Ġor 1.4650956
Ġskin 4.0694714
Ġburn 5.831127
. 1.306557
ĠPrec 10.658263
is 0.19234198
ely 0.0003118672
Ġthe 3.43112
Ġsame 1.2251039
Ġcharacteristics 8.308823
Ġare 1.5806535
Ġfound 3.3563924
Ġin 0.22597137
Ġtrash 3.6544018
, 1.1737894
Ġwhich 0.63362134
Ġcan 1.2420317
Ġjeopard 8.651835
ize 0.006979391
Ġthe 0.3077141
Ġhealth 1.4019642
Ġof 0.116127625
Ġthe 0.7781424
Ġinfant 0.59176886
Ġand 2.4832988
Ġimpact 6.256689
Ġthe 1.4707164
Ġsubsequent 3.4073634
Ġdevelopment 0.63832444
Ġof 1.1025995
Ġthe 0.48544008
Ġbody 1.9661632
.ĊĊ 0.6282893
Health 5.0073647
ĠEnhancement 1.9191006
ĠScheme 7.563326
ĊĊ 0.22892666
This 3.580309
Ġsection 1.7386247
Ġof 2.2144222
Ġthe 0.037135508
Ġscientific 8.03412
Ġpaper 1.5568931
Ġpresents 2.837608
Ġa 0.8743865
Ġhealth 0.9619922
Ġenhancement 0.2947782
Ġplan 2.3789396
Ġthat 1.789751
Ġcan 2.1906598
Ġoffer 6.391532
Ġknowledge 9.535793
Ġfor 3.0310802
Ġcaregivers 5.7831316
Ġon 2.0980773
Ġhow 0.4656862
Ġto 0.040136088
Ġa 6.9593267
vert 0.005692827
Ġand 2.8407402
Ġshield 2.2016566
Ġnewborn 1.7371346
s 0.063448496
Ġfrom 0.10779754
Ġenvironmental 1.7587943
Ġrisk 4.427631
.Ċ 9.383488
Monitor 12.169525
Ġwhat 7.481837
Ġthe 1.1591313
Ġinfant 0.51861274
Ġis 1.440008
Ġdoing 2.8437533
Ġboth 7.541674
Ġat 2.2936378
Ġhome 0.09827962
Ġand 0.0151665835
Ġon 3.9318128
Ġthe 0.19153526
Ġstreet 0.8280131
Ċ 3.844336
Car 6.4371166
ry 1.0892798
Ġout 0.53548634
Ġwater 6.261869
Ġfiltration 3.8381965
Ġbefore 3.6831207
Ġuse 2.797478
Ġwith 5.991627
Ġthe 1.2869945
Ġaid 3.9846578
Ġof 0.0022871643
Ġspecific 5.622761
Ġfilters 1.7336434
. 2.9151967
ĠAn 5.275355
Ġalternative 2.2729812
Ġmight 4.823197
Ġbe 0.05331896
Ġthe 2.6667848
Ġpurchase 3.096278
Ġof 0.035060614
Ġbottled 0.7546961
Ġwater 0.1795255
, 2.056576
Ġwhich 0.83616287
Ġwill 2.924227
Ġbe 1.708887
Ġdesignated 8.959622
Ġfor 0.6365094
Ġinfants 2.8083677
.Ċ 1.3681393
If 4.079768
Ġfeasible 4.6509767
, 0.02672984
Ġevade 9.393296
Ġlocations 4.9874926
Ġwhere 1.2133019
Ġthere 0.9347824
Ġis 0.45617434
Ġa 1.0626423
Ġhigh 1.2808797
Ġlevel 1.091386
Ġof 0.002020832
Ġair 0.8655524
Ġand 1.8606472
Ġwater 0.17629838
Ġcontamination 0.6401396
Ġnear 8.097382
Ġfactories 5.302258
Ġand 1.2167723
Ġproduction 4.9583483
.ĊĊ 6.877165
In 3.6690512
Ġother 5.7476277
Ġwords 0.28226346
, 0.004367698
Ġit 2.381791
Ġis 0.20068122
Ġcrucial 2.3613188
Ġto 0.14108038
Ġuphold 8.1835375
Ġthe 1.327285
Ġnecessary 5.2945175
Ġair 5.7715893
Ġquality 1.198764
, 2.730378
Ġwhich 2.0552802
Ġis 1.4591297
Ġdictated 8.145201
Ġby 0.050362937
Ġthe 0.54179204
Ġabsence 4.9277706
Ġof 0.024402665
Ġsurplus 8.576898
Ġgases 4.4825892
, 1.481448
Ġdirt 2.6445024
, 0.14296152
Ġand 0.33211046
Ġod 5.3763933
ors 0.056770623
. 0.5446432
ĠTo 3.4319305
Ġachieve 1.9865602
Ġthis 0.2262919
, 0.32234874
Ġit 1.0763278
Ġis 0.08229267
Ġvital 3.1558893
Ġto 0.029394833
Ġensure 2.9088676
Ġconstant 5.745104
Ġventilation 0.98110855
Ġin 1.6833798
Ġthe 0.26347473
Ġroom 1.2711269
Ġand 1.7784995
Ġmaintain 3.8742542
Ġa 1.7177057
Ġmoisture 6.504376
Ġequilibrium 7.4382544
Ġto 3.9707384
Ġrestrict 6.294898
Ġthe 0.35120997
Ġoccurrence 4.0270367
Ġof 0.0121012945
Ġmold 0.6750745
Ġdetrimental 13.435259
Ġto 0.18428108
Ġthe 0.81136745
Ġinfant 1.0098593
. 1.6533223
ĠAll 5.297201
Ġthese 2.3971736
Ġmeasures 1.9195703
Ġare 1.6903934
Ġdue 7.8781385
Ġto 0.01623612
Ġthe 0.10647488
Ġfact 0.51672435
Ġthat 0.008432543
Ġinfants 3.1821444
Ġhave 2.0248084
Ġa 0.8866316
Ġhigh 4.1139297
Ġrespiratory 2.9723573
Ġrate 0.47639945
Ġand 1.177734
Ġa 2.1855216
Ġlarger 5.4290276
Ġlung 1.888153
Ġsurface 0.22652508
Ġarea 1.1417378
Ġin 1.6973608
Ġproportion 0.9741094
Ġto 0.007918313
Ġtheir 0.42227903
Ġbody 0.30588144
Ġweight 0.9105245
. 0.8356555
ĠDue 4.9698734
Ġto 0.00065012503
Ġthe 1.4727161
Ġmore 6.4910135
Ġrapid 2.49554
Ġand 3.7035835
Ġintensive 3.7579923
Ġimmune 9.854023
Ġsystem 1.4125066
Ġdevelopment 1.4738735
, 0.36657578
Ġthey 2.225336
Ġare 0.31611386
Ġmost 5.6598573
Ġsusceptible 0.9135055
Ġto 0.031408474
Ġexternal 4.013101
Ġenvironmental 2.2220287
Ġelements 3.2385278
.Ċ 3.4930882
Ensure 4.7987022
Ġadherence 7.3517585
Ġto 0.01763543
Ġhygiene 2.6986556
Ġstandards 1.4679415
, 2.3864045
Ġwhich 1.4686052
Ġalso 4.3103414
Ġextend 7.3797255
Ġto 0.03348144
Ġbeing 7.8878975
Ġon 4.323037
Ġthe 0.0983292
Ġstreet 0.24711771
Ġor 3.8547692
Ġin 1.1272928
Ġa 1.8992366
Ġpublic 0.93289834
Ġplace 0.3752083
.Ċ 2.2105947
To 4.18701
Ġprevent 2.6612654
Ġpoisoning 4.0373964
Ġwith 3.8673391
Ġtoxic 3.5860124
Ġsubstances 0.48839092
, 0.3339247
Ġit 1.1594899
Ġis 0.021096943
Ġessential 1.8558897
Ġto 0.070017464
Ġthoroughly 4.7371993
Ġwash 0.61615777
Ġvegetables 3.7366571
Ġand 0.2942844
Ġfruits 0.17878802
Ġbefore 1.1080717
Ġoffering 6.7649083
Ġthem 0.19236214
Ġto 0.098552614
Ġan 2.6083758
Ġinfant 0.001797039
.Ċ 1.2403402
Ev 7.113983
ade 0.01360261
Ġtobacco 5.4115515
Ġsmoke 0.2357416
Ġand 1.7224172
Ġthe 3.3989594
Ġsmoke 4.43633
Ġfrom 1.150728
Ġburning 2.286065
Ġitems 5.575405
.Ċ 1.5850194
Consult 6.8054767
ation 6.5414467
Ġwith 0.18485546
Ġthe 2.6283116
Ġattending 3.1531723
Ġpediatric 2.002127
ian 0.016901737
Ġis 1.2215153
Ġessential 1.9560926
Ġregarding 4.1123667
Ġwhat 3.9549632
Ġactions 5.838169
Ġshould 1.3758669
Ġbe 0.02340864
Ġtaken 0.20123585
Ġin 1.4866084
Ġemergencies 5.859955
Ġand 1.9422618
Ġthe 3.1248317
Ġfundamentals 8.49386
Ġthat 5.1095552
Ġare 2.8165336
Ġcrucial 2.4826334
Ġto 0.9500717
Ġguarantee 5.0606556
Ġthe 0.645772
Ġsafety 1.79296
Ġof 0.13857318
Ġthe 0.49000257
Ġinfant 0.40485355
’s 2.9551845
Ġhealth 0.5182929
.ĊĊ 0.5638751
This 3.5285997
Ġarticle 5.231285
Ġraises 7.9188623
Ġthe 1.2177168
Ġsubject 4.9962196
Ġof 0.05947679
Ġsuch 7.826611
Ġperil 6.992063
Ġfor 7.4842196
Ġinfants 1.3181102
Ġand 1.6660202
Ġthe 2.3292902
Ġincreasing 8.439278
Ġprevalence 4.505139
Ġof 0.04846052
Ġsudden 7.9058247
Ġinfant 0.3235851
Ġdeath 0.09187644
Ġsyndrome 0.14210227
. 1.1440566
ĠThis 2.7690597
Ġis 1.7323623
Ġinfluenced 7.536377
Ġby 0.0533037
Ġmultiple 4.5363226
Ġexternal 4.4498467
Ġand 2.390746
Ġinternal 0.23221959
Ġelements 2.1546943
, 1.2594306
Ġsuch 2.0111866
Ġas 0.0012602333
Ġthe 1.6924531
Ġhigh 6.507409
Ġvulnerability 3.7077975
Ġof 0.14470099
Ġthe 0.666601
Ġbody 1.966366
, 1.8214126
Ġthe 1.2128372
Ġnegative 6.414901
Ġimpact 1.0554011
Ġof 0.09918499
Ġenvironmental 1.8779655
Ġelements 2.2722454
, 0.2593081
Ġand 0.5113335
Ġex 11.857387
ogenous 0.0898947
Ġstress 3.6823306
, 3.947171
Ġsuch 3.42724
Ġas 0.002035584
Ġsleeping 5.7791095
Ġon 1.5080287
Ġthe 0.42757624
Ġstomach 0.81129575
Ġor 1.9854739
Ġa 3.8812268
Ġsoft 1.8422831
Ġbed 2.0585809
, 2.7251058
Ġduring 6.2777195
Ġa 3.7383666
Ġcritical 4.13464
Ġperiod 0.5389557
Ġof 0.65008855
Ġdevelopment 1.098264
Ġ( 3.139626
Car 6.3832254
lin 3.4790578
Ġ& 2.4554546
ĠMoon 8.335953
, 0.030010113
Ġ 0.053968612
201 0.23046488
7 1.9149015
). 0.5350452
ĠThe 1.7243481
Ġsource 7.3815446
Ġis 4.3894978
Ġa 2.4454145
Ġvaluable 4.0304832
Ġresource 1.4537386
Ġfor 0.9617375
Ġhighlighting 7.4623556
Ġrecommendations 8.74386
Ġfor 0.9075599
Ġinfant 4.667367
Ġcare 1.0943494
. 2.3260915
ĠThus 4.8739424
, 0.010293918
Ġcaregivers 4.683295
Ġshould 1.4593493
Ġattend 7.1246495
Ġto 0.5591138
Ġaspects 5.972231
Ġsuch 0.7953813
Ġas 0.00082511053
Ġproper 3.8532484
Ġsleep 2.3001738
, 1.2420173
Ġa 3.4994884
Ġbed 5.976998
Ġfor 3.1293855
Ġthe 1.054447
Ġinfant 0.30031103
, 0.25086004
Ġsoft 7.3938875
Ġbedding 1.6477729
, 0.14420512
Ġtobacco 8.7467165
Ġsmoke 0.32806987
Ġrestriction 6.095687
, 0.06559308
Ġco 8.893538
hab 4.627358
itation 0.07169594
, 1.2136068
Ġand 0.5659416
Ġimmun 5.0490484
ization 0.29819384
.ĊĊ 1.7299877
This 3.0461936
Ġsource 2.2100873
Ġprovides 2.5380177
Ġinformation 2.103567
Ġand 4.63828
Ġrecommendations 1.8582863
Ġin 5.006177
Ġthe 0.8527008
Ġevent 3.0262828
Ġof 0.12236777
Ġencountering 6.5658646
Ġair 4.6114135
Ġpollution 1.5074627
. 0.85817033
ĠThis 2.6455114
Ġissue 4.4332733
Ġposes 6.0589375
Ġa 0.29406747
Ġthreat 1.7386358
Ġto 0.23355636
Ġthe 0.7757104
Ġhealth 0.73112947
Ġof 0.124149635
Ġsociety 8.462234
, 1.2645612
Ġparticularly 1.9100456
Ġto 2.2745326
Ġchildren 1.7692116
. 1.3515221
ĠDue 5.4689064
Ġto 0.0018942449
Ġthe 0.64055127
Ġelevated 5.9644375
Ġlevel 2.523658
Ġof 0.013023513
Ġurban 6.057474
ization 0.18174909
, 0.5680884
Ġmore 4.501298
Ġand 1.0847454
Ġmore 0.0040310263
Ġinfants 4.5183697
Ġare 0.4318447
Ġexposed 1.2081918
Ġto 0.012163706
Ġpolluted 3.7083492
Ġair 0.09893429
Ġfrom 4.731794
Ġvehicles 2.2540483
Ġand 0.9244887
Ġvarious 3.4219353
Ġindustrial 1.6065574
Ġplants 2.2515926
. 0.39775407
ĠThe 1.5572987
Ġsource 1.6512524
Ġaccent 7.2205462
uates 0.0065394
Ġthe 0.6257818
Ġsignificance 3.0800734
Ġof 0.02228249
Ġform 10.1165695
ulating 0.0037878465
Ġstrategies 3.935719
Ġaimed 4.2516994
Ġat 0.052153375
Ġpreventing 3.403841
Ġthe 1.5541592
Ġadverse 2.722521
Ġeffects 0.9192689
Ġof 0.115296535
Ġpollution 2.3312402
Ġon 0.7189514
Ġchildren 1.9124064
’s 0.9502244
Ġhealth 0.103807576
Ġ( 1.7645053
G 3.6794813
ouve 5.0147715
ia 0.08207109
Ġet 0.88612634
Ġal 0.014156461
., 0.019855412
Ġ 0.027778178
201 0.080863364
8 1.6548777
). 0.1984069
ĠFurthermore 5.073309
, 0.00057150197
Ġcaregivers 4.5567017
Ġshould 0.7603158
Ġpay 3.1393285
Ġspecial 2.3644605
Ġattention 0.034704536
Ġto 0.026631638
Ġairing 9.134109
Ġthe 0.7531352
Ġpremises 4.414792
Ġand 1.3541834
Ġavoiding 2.9382913
Ġthe 2.0622208
Ġclose 6.681279
Ġproximity 0.57739097
Ġof 0.3008169
Ġthe 1.277193
Ġinfant 0.37577856
Ġto 0.13479641
Ġsources 2.7589211
Ġof 0.048530478
Ġpolluted 4.139581
Ġair 0.021780232
. 1.1983968
ĠThe 1.7912399
Ġinformation 3.8899107
Ġprovided 1.5987369
Ġin 0.98524684
Ġthe 0.84808075
Ġscientific 4.7447114
Ġpaper 1.0196514
Ġcan 1.7094531
Ġalso 3.5143557
Ġaid 4.42842
Ġin 0.7765917
Ġmonitoring 4.732088
Ġchanges 5.2697277
Ġin 0.11832751
Ġhealth 4.280558
Ġeffects 8.489056
Ġdue 2.8211865
Ġto 0.00030948312
Ġstrategic 12.510175
Ġinterventions 2.7714639
.ĊĊ 1.0566045
One 5.5480084
Ġof 0.24645449
Ġthe 0.008541286
Ġissues 4.295399
Ġthat 1.2318331
Ġexternal 10.406264
Ġelements 1.5922631
Ġcan 1.2993296
Ġlead 4.27189
Ġto 0.007911689
Ġis 0.2849376
Ġgrowth 7.718753
Ġretard 1.0466167
ation 0.0014253563
Ġin 1.7814455
Ġinfants 0.8061632
, 2.4515545
Ġwhich 0.4458012
Ġwill 4.065647
Ġhave 2.147561
Ġnotably 12.318275
Ġsevere 3.409203
Ġconsequences 0.592683
Ġin 1.5148997
Ġadulthood 2.5104084
. 0.31923208
ĠThis 1.4703928
Ġhealth 5.869711
Ġissue 1.2438595
Ġcan 1.9931858
Ġexacerb 8.163416
ate 0.00026801124
Ġin 3.320116
Ġthe 1.1179667
Ġinitial 3.7200923
Ġfew 2.5784504
Ġyears 0.42017874
Ġof 0.3228476
Ġa 2.8511848
Ġchild 0.29090017
’s 0.048021704
Ġlife 0.07963941
. 1.1677904
ĠThe 1.5071526
Ġauthors 3.9122443
Ġstate 4.3855457
Ġthat 0.06957866
Ġ“ 2.957162
climate 6.738044
Ġchange 0.25059265
Ġwill 2.9024713
Ġcause 3.7126813
Ġsignificantly 8.120399
Ġmore 1.30054
Ġst 4.7912173
unting 0.32290277
Ġthrough 4.8471947
Ġa 3.501034
Ġreduction 3.698869
Ġof 2.4941852
Ġfood 1.7784196
Ġsecurity 2.5870433
” 2.4538603
Ġ( 0.16029623
201 7.231857
8 0.98990804
, 0.18859848
Ġp 0.30610383
. 0.0022077123
Ġ 0.0381994
551 8.115199
). 0.11225699
ĠThis 1.8559006
Ġsource 2.7657719
Ġoffers 3.8036666
Ġrecommendations 2.8680735
Ġand 2.9017525
Ġgeneral 6.785444
izations 5.1806717
Ġon 1.7159667
Ġenvironmental 4.597165
Ġrisk 3.560132
Ġelements 4.279863
Ġthat 1.4432195
Ġwere 7.6088076
Ġassociated 3.8950531
Ġwith 0.01126545
Ġgrowth 1.451457
Ġretard 0.3222196
ation 0.0021415744
. 1.1015904
ĠHence 3.7876263
, 0.008187465
Ġif 5.279647
Ġthere 3.1007438
Ġis 0.27211523
Ġa 0.8461658
Ġthreat 3.4491591
, 2.4438994
Ġit 1.0963545
Ġis 0.23144794
Ġcrucial 1.6369053
Ġto 0.039805524
Ġimplement 4.190296
Ġmeasures 2.4065802
Ġto 0.7437753
Ġfort 7.9247355
ify 0.00042030588
Ġthe 0.48061162
Ġhealth 2.6841197
Ġof 0.15877222
Ġinfants 2.2450688
, 2.2398713
Ġincluding 2.2319772
Ġsteps 8.648734
Ġto 0.679127
Ġenhance 3.0113263
Ġnutrition 1.4321339
Ġand 1.0796384
Ġcare 5.0181475
Ġfor 2.1718378
Ġthe 1.0862705
Ġcondition 6.6259255
Ġof 0.38375136
Ġthe 0.45360905
Ġroom 5.5732527
Ġin 2.9203794
Ġwhich 0.059604272
Ġthe 0.2281164
Ġchild 1.535987
Ġis 0.88411003
Ġsituated 3.336714
. 0.92223483
