In 4.749113
Ġthe 1.7892523
Ġinstance 9.442894
Ġstudy 7.650758
, 1.1343248
Ġa 3.2593586
Ġsubjective 8.8775215
Ġpart 6.7042055
Ġof 1.8518795
Ġthe 0.8519183
Ġnote 11.093668
Ġoffers 9.630509
Ġa 1.7614397
Ġdistinct 6.7025976
Ġimage 4.6362605
Ġof 0.49898887
Ġthe 0.71792275
Ġpatient 2.9427927
’s 1.0196373
Ġphysique 8.200416
, 2.1041214
Ġgrievances 10.589113
, 0.6170816
Ġand 1.2699511
Ġmedical 4.590383
Ġhistory 1.3950078
. 0.6059579
ĠHowever 4.9150763
, 0.24851082
Ġit 2.7807016
Ġrequires 5.812249
Ġspecification 11.546964
Ġabout 4.4237695
Ġthe 0.6679497
Ġmost 5.0531235
Ġrecent 3.9604926
Ġinstance 8.146475
Ġthe 4.673353
Ġpatient 1.1629608
Ġengaged 9.320495
Ġin 0.3065302
Ġunprotected 11.037178
Ġsexual 0.9562586
Ġactivity 2.1418264
Ġas 4.9417653
Ġit 3.6959162
Ġcan 2.9510477
Ġhelp 2.5928626
Ġdetermine 3.153098
Ġthe 0.353755
Ġtime 5.512068
Ġbetween 6.508671
Ġexposure 2.6303897
Ġand 0.31610438
Ġonset 2.9924219
Ġof 0.1012121
Ġsymptoms 0.9076381
. 0.6582406
ĠThe 1.8277016
Ġexistence 7.4042797
Ġof 0.059667278
Ġcomparable 9.202913
Ġskin 7.3170624
Ġirregular 7.5974813
ities 0.04840134
Ġon 2.096896
Ġthe 0.7222269
Ġpatient 1.3879484
's 3.9539914
Ġcurrent 8.935461
Ġsexual 3.5903738
Ġcompanions 4.578444
Ġand 3.1535676
Ġthe 1.9566466
Ġprior 5.4145145
Ġpresence 5.708834
Ġof 0.046129882
Ġakin 8.308655
Ġskin 4.343176
Ġabnormalities 2.586662
Ġon 1.3315227
Ġthe 0.56537986
Ġpatient 0.2656406
's 0.7674644
Ġskin 4.4957266
Ġand 3.6775103
Ġmuc 1.432541
ous 0.5193246
Ġmembranes 0.19587442
Ġcan 2.315647
Ġestablish 5.737358
Ġthe 0.9010859
Ġduration 6.029283
Ġof 0.2047656
Ġthe 0.80436057
Ġillness 3.1175785
Ġand 1.935656
Ġthe 1.3428004
Ġnumber 4.4623356
Ġof 0.016717933
Ġoccurrences 6.003601
. 1.168644
ĠThe 1.4808059
Ġemergence 8.395853
Ġof 0.027507981
Ġwidespread 8.033181
Ġrash 4.538995
Ġall 5.075298
Ġover 0.11267916
Ġthe 0.03157562
Ġpatient 1.6210355
's 0.36973664
Ġbody 0.3347858
Ġcan 1.89409
Ġsuggest 3.1695795
Ġthe 0.9575886
Ġduration 4.5290284
Ġand 2.3866007
Ġstage 5.296315
Ġof 0.027276818
Ġthe 0.37003428
Ġillness 1.2660563
. 0.76160777
ĠThe 1.3019681
Ġusage 8.022164
Ġof 0.009225072
Ġany 6.1389627
Ġmedications 3.6669314
, 2.4784796
Ġincluding 1.9768997
Ġantim 5.415699
icro 1.1808274
b 0.006633067
ials 0.0012514197
, 0.47033787
Ġin 3.8525553
Ġthe 0.2336646
Ġpast 1.2922771
Ġmonth 3.274393
, 2.4889212
Ġcan 1.1090668
Ġimpact 4.451026
Ġsubsequent 6.81683
Ġdiagnostic 3.3701253
Ġprocedures 2.647654
, 2.318437
Ġstrategies 9.945135
, 0.2145853
Ġand 0.11727612
Ġtreatment 2.1766539
Ġcourses 5.8850636
; 4.995192
Ġindicating 8.934473
Ġfixed 12.898331
Ġdrug 3.161152
Ġreaction 3.4954653
. 2.5293405
ĠThe 1.3264929
Ġpatient 2.1272185
's 0.7869559
Ġmedical 2.8088796
Ġhistory 0.3635296
Ġlacks 7.9209747
Ġg 9.580323
ynec 0.24806863
ological 0.36624956
Ġinterrogation 10.93399
Ġconcerning 4.923691
Ġmenstrual 5.098466
Ġspecifics 10.4532995
, 0.7259362
Ġpregnancies 5.1019926
Ġand 3.1715715
Ġtermin 6.5025806
ations 0.0060622254
, 0.37711546
Ġand 1.1898633
Ġpregnancy 7.71099
Ġprevention 4.1039805
. 2.0143785
ĠIt 3.2540386
Ġis 1.121846
Ġalso 2.2688916
Ġcrucial 3.077647
Ġto 0.114817135
Ġspecify 4.2897406
Ġthe 0.85412455
Ġpatient 1.5853834
's 0.2783131
Ġtravel 5.8199725
Ġpast 5.849152
Ġfor 4.204955
Ġdistinguishing 8.271026
Ġbetween 3.8642938
Ġch 6.971312
anc 0.39689162
roid 0.057982564
, 1.6463852
Ġlymph 2.6554847
og 0.017231034
ran 0.0003641866
ul 0.0014710608
oma 0.0024741127
Ġven 0.11505209
ereum 0.002248746
Ġ( 1.8717325
L 0.06648748
GV 0.015971258
), 0.12783699
Ġand 0.51512074
Ġgran 1.310982
ul 0.0015516406
oma 0.007552559
Ġing 0.020804854
uin 0.017978195
ale 0.0005778161
Ġ( 1.322455
Af 13.997742
z 1.8380861
al 0.05803408
, 1.3779862
Ġ 0.9316278
202 3.7658324
0 0.22474559
).Ċ 5.182561
The 1.2117378
Ġfactual 8.115306
Ġnotes 5.594289
Ġshould 3.8158565
Ġpredominantly 9.328551
Ġencompass 4.3818636
Ġphysical 4.7944207
Ġassessment 3.317368
Ġlike 6.465267
Ġexamination 3.9132981
Ġof 0.35957876
Ġthe 0.61964554
Ġlymph 4.2153873
Ġnodes 0.295819
Ġsince 6.8890047
Ġone 6.462898
Ġof 0.39269337
Ġthe 0.05064878
Ġnotable 6.1866145
Ġindicators 3.6323316
Ġof 0.13672109
Ġinitial 6.576206
Ġsy 2.245893
phil 0.042150848
is 0.0008358352
Ġis 0.60245496
Ġlocalized 6.8187857
Ġlymph 0.987128
aden 0.0409707
itis 2.4509642
, 2.1652803
Ġand 1.9112668
Ġsecondary 5.9121394
Ġsy 0.22773816
phil 0.0015306938
is 0.00022654302
Ġpresents 3.3849502
Ġwith 0.6073401
Ġextensive 5.287518
Ġlymph 0.81067586
aden 0.051968586
opathy 0.12972575
. 0.53744745
ĠThe 1.2006167
Ġevaluation 5.146306
Ġof 0.21266675
Ġthe 0.6408347
Ġskin 2.323845
Ġand 1.6195259
Ġmuc 0.3759441
ous 0.18451394
Ġmembranes 0.16202061
Ġin 3.8193784
Ġthe 1.0616583
Ġanal 5.708167
Ġregion 1.5918863
, 1.9701201
Ġper 3.344494
ior 5.359804
b 3.6314182
ital 0.0004119616
Ġregion 1.3709829
, 0.0864397
Ġoral 2.1998482
Ġmuc 1.6067418
osa 0.10042405
, 0.08826689
Ġand 0.6712192
Ġvaginal 5.848288
Ġexamination 8.0307865
Ġis 1.8314246
Ġalso 2.0199387
Ġnecessary 2.643012
. 1.1306796
ĠMultiple 8.789804
Ġso 6.668763
res 0.009001324
Ġmay 3.5946827
Ġappear 2.5495043
Ġif 6.0888634
Ġseveral 6.9814167
Ġsexual 3.0953684
Ġinteractions 6.5539327
Ġwith 3.069188
Ġthe 2.5882134
Ġinfected 1.0667206
Ġpartner 1.4892856
Ġduring 6.4837413
Ġthe 0.19763455
Ġrecipient 12.615523
's 0.9988452
Ġincub 0.73670274
ation 0.018112488
Ġperiod 0.20989755
Ġoccurred 1.8320229
Ġor 4.416763
Ġif 0.7146755
Ġvarious 6.3610744
Ġpoints 8.517519
Ġof 0.075142786
Ġbacterial 5.755437
Ġinfiltration 6.2097325
Ġhappened 3.9164944
Ġduring 2.4663918
Ġone 3.0645292
Ġsexual 0.7376827
Ġact 3.0488188
. 0.3712237
ĠA 3.2858925
Ġthorough 3.5266066
Ġexamination 2.1642218
Ġof 0.21175371
Ġoral 7.1428223
Ġmuc 1.7191949
osa 0.17126629
Ġcan 2.5600443
Ġsuggest 5.524063
ĠBeh 10.320606
ç 0.76897687
et 0.005774016
Ġdisease 2.2627797
Ġif 4.0526805
Ġthe 1.4362514
Ġmouth 4.174944
Ġul 1.8846945
cers 2.355753e-05
Ġare 0.8506916
Ġdistress 11.259365
ing 0.0976446
Ġand 0.8866301
Ġcorrespond 9.144306
Ġwith 1.6849146
Ġeye 5.508675
Ġinflammation 2.9074821
, 2.0224974
Ġskin 1.8067454
Ġlesions 1.0283755
, 0.08735257
Ġmuscle 9.781579
Ġand 2.275065
Ġjoint 0.36002952
Ġdiscomfort 3.3961213
, 0.35416767
Ġand 0.36214992
Ġstomach 6.7268047
Ġsymptoms 4.113948
.Ċ 3.1080108
The 1.126964
Ġdiagnostic 4.636529
Ġassays 6.808611
Ġshould 2.319963
Ġinvolve 3.3883605
Ġscreenings 7.9606256
Ġfor 0.36251107
Ġsy 1.5498952
phil 0.0154570285
is 0.000336535
Ġ( 3.6591501
VD 2.324235
RL 0.00094219245
Ġin 7.671227
Ġconjunction 4.8873844
Ġwith 0.009837902
Ġdark 4.5929
field 1.6742902
Ġmicroscopy 0.78608793
Ġor 2.3534126
Ġdirect 4.1896133
Ġfluorescent 0.33304
Ġantibody 0.11951199
Ġtest 1.931165
), 1.2325144
Ġpolymer 9.752082
ase 0.0065671145
Ġchain 0.016277054
Ġreaction 0.029428056
Ġ( 0.5047341
PCR 0.06397789
) 0.4411248
Ġfor 0.7581012
ĠHSV 2.7211695
, 1.0110441
ĠDNA 7.148235
Ġampl 3.147064
ification 0.008312902
Ġtests 2.7403007
Ġfor 0.25248083
Ġch 1.7642145
anc 1.6723981
roid 0.0029262342
, 0.64335454
Ġand 1.0123674
ĠLG 3.2137105
V 0.0045253
Ġ( 2.1267045
Ro 8.603334
ett 6.921875
, 0.65702856
Ġ 0.26898018
202 1.050806
0 0.07973783
). 0.5682281
ĠThe 1.1891534
Ġlast 8.07753
Ġstep 3.49022
Ġin 2.145943
Ġthe 0.5129525
Ġdiagnostic 1.0391558
Ġpursuit 8.76744
, 4.791872
Ġif 3.1300936
Ġprior 6.809663
Ġscreenings 3.1839168
Ġare 1.3678705
Ġnegative 1.1097698
, 0.15065
Ġshould 2.1164217
Ġbe 1.2620392
Ġa 1.7812402
Ġhist 4.3699617
ologic 2.1720932
Ġexamination 1.1731033
Ġof 0.33356088
Ġa 1.7511749
Ġtissue 2.2722192
Ġbiopsy 1.3236432
Ġsearching 12.315358
Ġfor 0.01940105
ĠDonovan 7.7615185
Ġbodies 0.09489717
Ġunique 10.178195
Ġto 0.32416138
Ġgran 0.77068937
ul 0.0002105734
oma 0.005354125
Ġing 0.011807987
uin 0.0013133322
ale 0.00055613206
Ġ( 2.10256
K 3.816078
ang 4.9575753
Ġet 1.77221
Ġal 0.066308334
., 0.07747625
Ġ 0.004893939
201 0.9929614
9 0.93410176
).Ċ 0.73828095
The 1.1815904
Ġassessment 5.612041
Ġis 4.8417897
Ġmainly 4.9186745
Ġsupported 5.88929
Ġby 0.11216439
Ġfactual 5.766797
Ġevidence 3.189001
Ġas 3.7070446
Ġtest 9.230356
Ġoutcomes 2.7778525
Ġare 1.4127127
Ġthe 3.6173623
Ġmost 1.4274383
Ġreliable 2.0843034
. 2.7552905
ĠA 4.0393977
Ġsubset 8.949947
Ġof 0.036544576
Ġindividuals 4.9777317
Ġwith 1.2071494
Ġsexually 5.8249083
Ġtransmitted 0.071314715
Ġdiseases 1.0369687
Ġhas 3.7003403
Ġpeculiar 6.8683634
ities 2.4360688
Ġin 0.6564555
Ġproviding 8.644369
Ġerroneous 8.823197
Ġinformation 1.4733732
Ġto 2.9807167
Ġthe 1.4478524
Ġphysician 2.1450548
, 1.6406847
Ġand 2.1400032
Ġtheir 4.1389103
Ġmedical 3.6466525
Ġhistory 1.0615886
Ġshould 2.67447
Ġbe 0.31449717
Ġcritically 4.81658
Ġassessed 1.7209554
. 0.87899166
ĠSy 5.4598174
phil 0.044399206
is 0.00077556213
Ġis 1.2964644
Ġa 1.1815819
Ġfitting 12.426853
Ġdiagnosis 3.9201999
Ġfor 1.8030645
Ġthis 2.3531752
Ġinstance 3.1881235
, 1.8936065
Ġand 1.2588849
Ġtest 7.4638004
Ġfindings 4.769393
Ġcan 3.0506692
Ġvalidate 4.7298675
Ġor 4.001403
Ġrefute 1.5974463
Ġit 1.3465462
. 0.3182986
ĠIt 3.7073808
Ġis 0.36936408
Ġcrucial 2.5082223
Ġfor 3.4354289
Ġevery 5.5582485
Ġhealthcare 2.5586226
Ġpractitioner 2.0566182
Ġto 0.060510956
Ġbe 2.3853898
Ġvigilant 3.333201
Ġabout 1.8052316
Ġsy 3.8896961
phil 0.013689632
is 0.00279418
; 5.4169517
Ġdespite 5.7482367
Ġnot 5.9924726
Ġbeing 0.18896161
Ġwidespread 4.479747
, 0.71807027
Ġthe 1.9882038
Ġeffects 6.194127
Ġon 3.6765046
Ġall 6.9940476
Ġbody 1.5151201
Ġsystems 0.36548245
Ġand 2.5275578
Ġorgans 2.4621058
Ġare 0.9030473
Ġsevere 2.051685
. 1.1620295
ĠSy 3.2203074
phil 0.01687419
is 0.0002162915
Ġis 1.1595579
Ġan 2.9296188
Ġage 5.988572
-old 0.8393297
Ġail 3.309466
ment 4.7517467e-05
; 2.7367296
Ġyet 4.426485
, 0.28654376
Ġcontemporary 5.944419
Ġmedicine 2.139128
Ġlacks 4.1379895
Ġawareness 6.632987
Ġin 4.439137
Ġdiagn 2.80865
osing 0.00023977463
Ġit 1.212249
Ġas 3.6321905
Ġit 1.5543674
Ġmight 5.0791707
, 7.700849
Ġfor 3.1077614
Ġinstance 0.8556039
, 0.0038152726
Ġim 4.2628756
itate 0.0034456416
Ġother 2.2589076
Ġoral 8.801953
Ġindications 8.909127
Ġ( 2.4326396
D 4.252692
y 4.61413
beck 7.4208922
ĠU 9.304448
dd 2.558867
Ġ& 6.757317
ĠLund 4.9816895
, 3.99973
Ġ 0.0070259194
201 0.6964186
6 2.8497431
). 0.70164233
ĠAs 4.1543303
Ġan 3.876011
Ġalternative 4.2610993
Ġdiagnosis 3.7021768
, 0.21795352
ĠHSV 3.6004605
Ġinfection 2.616043
Ġcan 1.5299758
Ġbe 0.5467302
Ġconsidered 1.0977931
, 1.5529776
Ġand 2.4754548
Ġthe 1.7008184
Ġdifferential 5.3499994
Ġexploration 10.08958
Ġfor 2.5241373
Ġit 1.920045
Ġwill 3.6877875
Ġshow 7.7535744
Ġgrouped 11.753119
Ġbl 3.457302
isters 0.0058383876
Ġon 1.6015471
Ġa 4.2062416
Ġredd 1.7380173
ened 0.3368636
Ġbase 0.39088205
, 1.5119754
Ġleading 7.5685196
Ġto 0.067482404
Ġshallow 7.0023985
Ġso 4.8556314
res 0.00068669853
Ġ( 3.0186925
V 5.1869054
est 5.3880606
erg 0.23909254
a 0.025086835
ard 0.00089526287
, 1.1042337
Ġ 0.39656854
201 0.38081533
8 1.632736
) 5.4172864
Ġsubsequently 9.303074
. 3.020058
ĠCh 2.7178707
anc 0.020653535
roid 0.003872516
, 2.4085982
Ġor 4.635413
Ġsoft 1.273752
Ġchan 0.11855063
cre 0.0005405237
, 0.08231497
Ġis 0.7035976
Ġtriggered 8.143516
Ġby 0.02379787
ĠHa 0.6982349
em 0.0016858898
ophil 0.010097088
us 0.00378487
Ġdu 0.01986149
cre 0.00014811802
yi 0.01170195
, 1.097973
Ġis 3.7472584
Ġprevalent 5.042483
Ġin 0.23875967
ĠAfrica 1.8517886
Ġand 0.7089714
ĠAsia 1.1335925
, 0.51080954
Ġhas 4.805553
Ġan 2.7950916
Ġincub 0.12870196
ation 0.0027366395
Ġperiod 0.23367207
Ġfrom 3.7014933
Ġ 0.5660705
24 5.023386
Ġhours 0.9059226
Ġto 0.067348674
Ġ 0.4091365
15 3.6367376
Ġdays 0.0337227
, 0.25523165
Ġand 0.35398456
Ġpresents 2.4783494
Ġa 4.604989
Ġpainful 2.433743
Ġulcer 1.2918326
Ġsituated 7.0616527
Ġun 7.9403353
ilater 0.012208465
ally 0.00039801843
Ġ( 2.5148504
A 4.717657
gh 3.4629912
ar 6.8012447
bi 3.085709
, 1.3472586
Ġ 0.42402127
201 0.36879662
9 0.951905
).Ċ 2.4081142
L 4.696658
ymph 1.2243792
og 0.0066362713
ran 0.0005992618
ul 0.0003981376
oma 0.004146069
Ġven 0.03309482
ereum 0.0017056518
Ġis 1.0221537
Ġcaused 2.120252
Ġby 0.007570773
ĠL 5.2038674
-ser 9.102351
ov 0.78059846
ars 0.23102167
Ġof 0.38423946
Ġch 2.4143035
lam 0.006267428
y 0.044520523
dia 0.0035126451
Ġtr 0.5645118
ach 0.002265163
om 0.006712178
atis 0.0034421997
Ġand 1.1013458
Ġis 1.2940432
Ġprevalent 2.4419012
Ġin 0.14682367
Ġendemic 4.9634886
Ġareas 0.6965716
Ġof 1.915739
ĠAfrica 1.232488
, 0.49200466
ĠSouth 1.9185729
-East 3.878864
ern 3.3709233
ĠAsia 0.33051893
, 0.03874541
ĠSouth 2.7408857
, 5.216461
Ġand 0.52380234
ĠCentral 0.1932069
ĠAmerica 0.02162789
, 1.1385257
Ġexhibiting 7.615212
Ġing 4.792162
u 0.02416972
inal 0.010949366
Ġand 2.643261
Ġan 4.68087
ore 0.052300923
ctal 0.0051830015
Ġsymptoms 2.8897336
Ġ( 1.2152821
K 2.9630375
and 5.943226
Ġet 7.6317644
Ġal 0.0024184645
., 0.021327207
Ġ 0.0038270333
201 0.30129018
9 0.4949184
). 0.14288588
ĠGran 1.1367074
ul 0.00037263904
oma 0.00077948853
Ġing 0.0076809195
uin 0.003110215
ale 0.00035274302
Ġis 0.4441713
Ġinduced 4.251777
Ġby 0.008419537
ĠKle 0.3114057
bs 0.010186658
i 0.0023449692
ella 0.0032759835
Ġgran 0.035441536
ul 0.0027547108
om 0.0034931616
atis 0.00530337
Ġand 0.90206987
Ġis 0.527045
Ġendemic 2.7262158
Ġin 0.26022556
ĠSouth 2.2815719
ĠAfrica 1.0142303
, 0.41786996
ĠIndia 2.2138186
, 0.010991226
ĠSouth 3.1897814
ĠChina 7.044826
, 0.029736718
Ġand 0.530491
ĠBras 13.339345
ilia 0.034700625
, 1.3907679
Ġwith 2.4230976
Ġul 3.2371595
cers 0.0050106673
Ġt 8.732523
ending 0.0072459606
Ġto 0.033411223
Ġgradually 7.808523
Ġexpand 2.177771
Ġand 1.3767906
Ġhaving 5.491606
Ġelevated 4.8499966
Ġrolled 6.0078235
Ġedges 0.48689863
Ġ( 0.82377285
Af 2.909611
z 0.004437955
al 0.0020125024
, 0.06156446
Ġ 0.004939851
202 0.044017013
0 0.0018540311
). 0.44768998
ĠBeh 2.643884
ç 0.108006224
et 0.0038465094
Ġdisease 0.30085748
Ġcan 3.4624486
Ġalso 2.6295846
Ġbe 0.52967936
Ġcontemplated 5.324975
Ġfor 3.6617618
Ġdifferential 3.391147
Ġdiagnosis 0.544137
Ġthough 6.802574
Ġit 0.81482
Ġis 0.57682484
Ġan 3.071362
Ġinf 2.8963025
requent 0.10029088
Ġmultis 5.3194075
ystem 0.004031976
ic 1.1312952
Ġdisorder 1.7926517
Ġinvolving 4.8122005
Ġvarious 4.9341035
Ġorgans 1.1210828
Ġin 4.309007
Ġthe 0.6656424
Ġpathological 9.269161
Ġprocess 0.45583138
. 1.5310074
ĠThe 1.4539855
Ġclinical 3.420153
Ġpresentation 2.156283
Ġis 1.7765633
Ġnotable 7.879757
Ġwith 3.2922873
Ġpainful 4.5843244
Ġand 3.96897
Ġdeep 3.5986843
Ġoral 1.868075
Ġand 2.416691
Ġgenital 0.2584814
Ġul 0.37019253
cers 0.00017636562
, 0.63441545
Ġeye 2.3194833
Ġinflammation 1.0609492
, 0.14191848
Ġand 1.5408423
Ġoccasionally 7.016751
Ġgastrointestinal 3.2569048
, 1.277326
Ġmuscular 4.4703465
, 0.1404315
Ġand 0.34482706
Ġjoint 1.5835931
Ġinvolvement 4.404627
Ġ( 0.55853456
D 1.1301408
av 6.745903
atch 1.0332559
i 0.018253427
Ġet 0.3437387
Ġal 0.0010629402
., 0.012520364
Ġ 0.0020812629
201 0.13453448
7 2.2660065
). 0.7196303
ĠSy 4.2442417
phil 0.016541487
is 0.0003092447
Ġlesions 8.063683
Ġare 1.0392188
Ġseldom 6.8202715
Ġpainful 0.39303863
, 0.8578481
Ġexhibit 6.9547467
Ġa 1.4025137
Ġrange 7.3098235
Ġof 0.09506575
Ġskin 5.3390646
Ġcomponents 7.5082874
, 0.47375345
Ġnotably 7.6282797
Ġin 3.7488494
Ġthe 0.73523223
Ġsecondary 1.6540488
Ġstage 0.5970973
, 0.3044782
Ġand 0.42406228
Ġthe 3.629136
Ġprimary 4.1460886
Ġsore 2.9818852
Ġhas 3.3416612
Ġa 0.4880437
Ġcharacteristic 3.2601647
Ġhard 4.352372
ening 5.34725
Ġat 4.0272574
Ġthe 0.27071276
Ġbase 0.5009401
Ġ( 1.47383
K 2.3056774
ang 0.49370584
Ġet 0.04472379
Ġal 0.0017337289
., 0.011808571
Ġ 0.001728253
201 0.014445659
9 0.016437015
). 0.53770524
