Given 9.339493
Ġthat 1.7140067
Ġskiing 11.4734745
Ġis 0.7615062
Ġconsidered 4.833209
Ġa 1.4330285
Ġsomewhat 5.6548915
Ġdistress 12.376416
ing 0.078408025
Ġactivity 1.5358812
, 0.52554715
Ġthe 2.655302
Ġcorporation 10.784324
Ġshould 4.1958995
Ġhave 3.5690875
Ġimplemented 6.2505417
Ġmeasures 3.4069366
Ġto 0.63957727
Ġreduce 2.7353625
Ġthe 0.72083163
Ġchances 3.7529452
Ġof 0.059336938
Ġinjury 2.2595172
Ġfor 3.9212742
Ġthe 1.6733726
Ġsk 1.3432766
iers 0.12725492
. 0.5179711
ĠYet 7.6453943
, 0.44323534
Ġin 3.482039
Ġthat 6.287924
Ġspecific 4.2681155
Ġscenario 3.6905622
, 0.18935853
Ġthe 0.88710535
Ġconduct 8.914635
Ġof 0.24857396
Ġthe 0.3046761
Ġcorporation 1.1606205
’s 3.9230642
Ġemployees 1.2532291
Ġhas 3.7318404
Ġposed 6.297754
Ġhealth 5.8587294
Ġhazards 2.3190358
Ġfor 1.3936594
ĠMr 5.460534
. 0.14449023
ĠCraig 7.9285707
Ġand 1.8317124
ĠMr 2.6816466
. 0.045459446
ĠAlex 8.458616
, 1.9348922
Ġwho 2.0541766
Ġwere 1.6099815
Ġindeed 7.3994684
Ġhurt 3.5127714
. 2.3480117
ĠThe 1.983742
Ġfact 2.7552524
Ġthat 0.05148385
Ġit 4.3349257
Ġwas 0.8087497
ĠApril 8.48938
Ġand 1.3550165
Ġthe 1.001476
Ġtrails 5.542419
Ġwere 0.35106477
Ġmeant 4.836589
Ġto 0.27063438
Ġbe 0.101768814
Ġclosed 0.738115
Ġmight 5.9570475
Ġdiminish 7.743575
Ġthe 0.25353733
Ġextent 4.3774214
Ġof 0.109361604
Ġthe 0.6570834
Ġcorporation 0.941766
’s 0.021446232
Ġliability 0.43334448
Ġin 3.3221583
Ġthis 1.4033438
Ġspecific 3.6466265
Ġsituation 2.220731
, 1.0520916
Ġbut 0.9108283
Ġnot 3.0072107
Ġentirely 2.5932791
. 0.5155414
ĠThe 1.6995525
Ġcorporation 1.6407019
Ġer 10.110873
red 0.00624208
Ġin 0.55564713
Ġallowing 2.5679522
Ġindividuals 5.092518
Ġto 0.42390892
Ġski 0.7662585
Ġfollowing 9.280424
Ġthe 0.8981686
Ġsnow 3.1330578
storm 1.0508717
Ġeven 5.659488
Ġthough 0.6095803
Ġit 1.5583622
Ġcould 4.1037073
Ġnot 2.5475357
Ġhave 2.3673587
Ġsanctioned 10.698427
Ġsuch 1.7894567
Ġactions 4.5017047
. 1.4191244
ĠConsequently 5.3180737
, 0.0062411297
Ġthe 0.73450476
Ġcorporation 0.60576713
's 6.8870792
Ġconduct 2.0078375
Ġjeopard 8.046772
ized 0.24459803
Ġnot 5.1124945
Ġjust 3.4613066
Ġthe 0.4230426
Ġsk 2.0132952
iers 0.040617067
Ġbut 2.5251565
Ġalso 0.44542646
Ġthe 0.6581907
Ġstaff 3.5016747
Ġmembers 1.5651277
.ĊĊ 3.1708372
Even 5.208533
Ġthough 0.42729208
ĠMr 2.50405
. 0.0074128243
ĠAlex 1.8461
’s 3.115878
Ġinjury 2.4353507
Ġwas 0.9121858
Ġcaused 2.4476776
Ġby 0.21872598
ĠMr 2.838088
. 0.006155235
ĠCraig 0.07647028
, 1.0928861
Ġit 2.4332294
Ġis 1.3042487
Ġnot 2.4398353
Ġsolely 7.0999746
Ġhis 1.0288182
Ġfault 0.6495509
Ġin 5.2584896
Ġits 6.561142
Ġoccurrence 4.1560607
. 0.21430114
ĠIt 2.9465857
Ġwould 3.4753034
Ġnot 2.5135467
Ġhave 0.9663264
Ġtrans 4.3991246
pired 0.0013452349
Ġif 0.7440731
ĠDan 10.9501705
Ġand 2.0959144
ĠAbby 8.501989
Ġhad 0.47191066
Ġnot 0.70836467
Ġdirected 5.915394
Ġhim 2.1754775
Ġto 0.278549
Ġthe 1.5065774
Ġun 4.8250484
tested 6.1706142
Ġincl 9.469786
ine 0.07595167
Ġwithout 5.916699
Ġany 2.4733126
Ġsupervisor 9.3064995
Ġwho 6.1682324
Ġcould 0.8450444
Ġhave 0.37605134
Ġa 5.2592726
verted 0.054577105
ĠMr 3.7537036
. 0.00802251
ĠAlex 0.66197747
’s 0.40862808
Ġinjury 1.4287934
. 0.3040833
ĠHence 4.2945843
, 0.028134746
Ġthe 1.0106725
Ġhealth 7.6321754
Ġharm 7.306066
Ġwas 2.6028914
Ġinst 6.450611
igated 0.0069154687
Ġboth 4.7999034
Ġby 0.053504065
Ġthe 0.99011874
Ġcorporation 1.0259429
Ġand 0.84592086
Ġby 1.462867
ĠMr 0.66363955
. 0.0133971535
ĠCraig 0.32598191
Ġinadvertently 9.282141
. 0.7165431
ĠNevertheless 4.083017
, 0.00225303
Ġthis 4.7542048
Ġdoes 1.1934699
Ġnot 0.011609342
Ġimply 2.3251948
Ġthat 0.06794106
Ġcompens 9.79536
ating 1.5433087
Ġfor 3.027645
ĠMr 1.1130905
. 0.005754461
ĠAlex 0.185988
’s 0.16373791
Ġinjury 1.1118897
Ġfalls 4.8403144
Ġunder 3.131422
ĠMr 3.1596282
. 0.0063773603
ĠCraig 0.05137764
’s 0.1165053
Ġobligation 3.0845504
Ġsince 3.87214
Ġhis 2.7786508
Ġactions 1.7030436
Ġwere 0.53793997
Ġa 3.808374
Ġconsequence 2.0026813
Ġof 0.017740484
ĠDan 2.149754
Ġand 0.28633946
ĠAbby 0.018294854
's 2.2164836
Ġactions 2.489567
. 0.70319855
ĠConsequently 3.1367376
, 0.0021844034
Ġthe 0.80959713
Ġcorporation 0.7195637
Ġshould 1.4719161
Ġcover 3.644217
ĠMr 1.3178399
. 0.004768665
ĠAlex 0.057272606
’s 0.27574393
Ġmedical 0.86566514
Ġexpenses 0.92774135
Ġbased 6.2391853
Ġon 0.01824149
Ġthe 0.58524704
Ġseverity 6.5957212
Ġof 0.041060407
Ġthe 1.114898
Ġharm 2.2625022
Ġhe 2.3049664
Ġhas 2.6625323
Ġsustained 1.5190653
Ġand 3.0358105
Ġthe 0.95660746
Ġduration 4.4146304
Ġof 0.6274652
Ġthe 1.5679076
Ġrecovery 1.5979185
Ġperiod 1.3953208
Ġ( 3.4259267
G 3.6776686
og 5.9603367
uen 2.3074417
, 0.4574438
Ġn 4.831909
.d 0.09860511
.). 1.4963977
ĠFurthermore 3.9507895
, 0.0011753439
Ġthe 0.8339656
Ġcorporation 0.4268396
Ġshould 0.53713846
Ġreimburse 4.8161736
Ġfor 3.3709304
Ġthe 1.0513526
Ġski 3.8925266
Ġgear 2.2402375
Ġthat 1.0624938
Ġwas 1.4231329
Ġdamaged 0.936125
Ġduring 1.5508682
Ġthe 0.22584555
Ġincident 1.8998729
.ĊĊ 1.0998393
The 1.9855531
Ġreality 8.955841
Ġthat 0.12017373
Ġskiing 3.6515026
Ġis 0.65509003
Ġa 1.0023592
Ġdistress 2.116897
ing 0.08392999
Ġactivity 0.49950355
Ġimplies 3.0807538
Ġthat 0.034059074
ĠMr 3.6563964
. 0.0033639085
ĠAlex 2.066325
Ġhimself 8.127544
Ġmust 3.4932985
Ġhave 0.7563375
Ġbeen 1.4685627
Ġaware 1.1516318
Ġof 0.32330912
Ġthe 0.16351676
Ġhealth 3.3656745
Ġhazards 1.6432354
Ġhe 2.1428614
Ġwould 2.8286476
Ġencounter 2.326334
Ġwhen 2.901791
Ġskiing 1.3985593
Ġpost 9.95453
-season 6.321396
. 0.362138
ĠHis 4.8559413
Ġchoice 4.037452
Ġto 0.24471143
Ġski 0.9505721
Ġsolo 10.337326
Ġon 2.409788
Ġa 0.98246056
Ġchallenging 4.2924213
Ġincl 1.2157978
ine 6.0391463e-05
Ġbased 7.3474574
Ġon 0.033226743
Ġhis 2.0340662
Ġexpertise 3.8758771
Ġindicates 4.2666397
Ġthat 0.17181225
Ġhe 0.16969137
Ġcompreh 5.537455
ended 0.19025424
Ġall 5.500859
Ġthe 0.18674006
Ġpotential 2.5761135
Ġrisks 1.0808799
. 2.0181756
ĠNonetheless 3.1719036
, 0.0007796078
Ġhis 3.114205
Ġactions 2.9452655
Ġdemonstrate 5.5041213
Ġthat 0.5072257
Ġhe 0.18879463
Ġattempted 6.1282682
Ġto 0.027302807
Ġavoid 2.9424636
Ġthe 1.1233188
Ġcollision 7.5417795
Ġand 3.0609603
Ġbehaved 8.5050125
Ġprofessionally 5.636862
Ġwithout 6.4751253
Ġbre 6.9586954
aching 7.9940866e-05
Ġany 0.86973727
Ġskiing 4.918295
Ġregulations 1.8653193
Ġand 4.4763856
Ġstandards 3.389928
. 0.3497836
ĠIt 3.801251
Ġwas 2.1768403
ĠMr 2.0853312
. 0.0032465162
ĠCraig 0.26673698
's 1.6667271
Ġactions 2.9498775
Ġthat 0.24349383
Ġled 2.1395316
Ġto 0.047559164
Ġthe 0.30107823
Ġcrash 3.1299365
. 1.485658
ĠThus 3.6128268
, 0.011811046
Ġit 2.4649198
Ġis 0.6870318
Ġhis 3.9207377
Ġliability 2.3596182
Ġand 3.0211606
Ġthe 2.0412297
Ġliability 3.5632594
Ġof 0.011692996
Ġthose 5.1352825
Ġwho 0.46442154
Ġdispatched 6.1904826
Ġan 9.191668
Ġinade 6.735695
qu 0.0034766514
ately 0.0029526204
Ġskilled 1.997717
Ġsk 0.48154166
ier 0.0021640635
Ġto 0.8569598
Ġthe 1.625477
Ġun 2.1638308
tested 0.1107348
Ġslope 1.7804208
. 1.1515198
