Given 9.124651
Ġthat 1.4652159
Ġskiing 11.521775
Ġis 0.7644009
Ġconsidered 4.8907394
Ġa 1.4301112
Ġsomewhat 5.887945
Ġdistress 11.689561
ing 0.068084046
Ġactivity 1.2396488
, 0.7964249
Ġthe 2.84355
Ġcorporation 11.234273
Ġshould 3.693332
Ġhave 2.2511215
Ġimplemented 6.3077993
Ġmeasures 3.825727
Ġto 0.4101435
Ġreduce 2.5032566
Ġthe 0.50375056
Ġchances 3.32274
Ġof 0.06766101
Ġinjury 1.969835
Ġfor 4.73344
Ġthe 1.7518848
Ġsk 2.006855
iers 0.41801518
. 0.6477862
ĠYet 6.527245
, 0.4242044
Ġin 3.1396415
Ġthat 5.9045806
Ġspecific 4.211303
Ġscenario 3.935442
, 0.20938958
Ġthe 0.90095645
Ġconduct 9.408126
Ġof 0.684698
Ġthe 0.31801045
Ġcorporation 3.3869956
’s 3.613089
Ġemployees 1.1704972
Ġhas 4.191109
Ġposed 6.693796
Ġhealth 7.625358
Ġhazards 1.9681787
Ġfor 1.7568501
ĠMr 9.585742
. 0.09612653
ĠCraig 8.03447
Ġand 2.068674
ĠMr 3.0950043
. 0.011596616
ĠAlex 8.805122
, 2.3216314
Ġwho 2.1377215
Ġwere 1.4832563
Ġindeed 7.4695244
Ġhurt 4.1210947
. 1.8120275
ĠThe 1.8065319
Ġfact 4.016593
Ġthat 0.1582086
Ġit 4.5956078
Ġwas 0.8843232
ĠApril 10.637454
Ġand 2.6387925
Ġthe 1.5094341
Ġtrails 7.929076
Ġwere 0.3682564
Ġmeant 7.9604907
Ġto 0.48551214
Ġbe 0.133279
Ġclosed 3.1083777
Ġmight 6.606537
Ġdiminish 9.405989
Ġthe 0.23822859
Ġextent 4.3227477
Ġof 0.17863078
Ġthe 0.64577305
Ġcorporation 3.152054
’s 0.016877007
Ġliability 1.3000729
Ġin 2.707081
Ġthis 0.7825367
Ġspecific 3.4821148
Ġsituation 2.1071494
, 2.284499
Ġbut 0.77702713
Ġnot 3.5180173
Ġentirely 2.5710654
. 0.73146874
ĠThe 1.5165583
Ġcorporation 1.7476218
Ġer 10.477326
red 0.0019879942
Ġin 0.45629895
Ġallowing 4.055927
Ġindividuals 5.6071763
Ġto 0.29414618
Ġski 0.73593044
Ġfollowing 9.008566
Ġthe 1.0326138
Ġsnow 2.8838108
storm 3.6221037
Ġeven 4.30326
Ġthough 0.9285296
Ġit 1.3690444
Ġcould 4.4489822
Ġnot 1.9444207
Ġhave 3.7611647
Ġsanctioned 9.719338
Ġsuch 1.8406177
Ġactions 3.0304012
. 1.2265695
ĠConsequently 4.898105
, 0.0058586355
Ġthe 0.73883504
Ġcorporation 0.55389595
's 7.02529
Ġconduct 1.9496613
Ġjeopard 7.626108
ized 0.072167955
Ġnot 5.030654
Ġjust 2.5187845
Ġthe 0.6982973
Ġsk 2.09738
iers 0.11014673
Ġbut 1.2799491
Ġalso 0.38557768
Ġthe 0.7763615
Ġstaff 5.0935507
Ġmembers 1.7798642
.ĊĊ 2.9082954
Even 6.186288
Ġthough 0.67623246
ĠMr 2.8198462
. 0.003868355
ĠAlex 1.977433
’s 2.7869506
Ġinjury 1.7328035
Ġwas 0.80833894
Ġcaused 2.9198806
Ġby 0.24324906
ĠMr 3.7243228
. 0.0023780235
ĠCraig 0.16093315
, 1.4266974
Ġit 2.155974
Ġis 1.1079143
Ġnot 2.656705
Ġsolely 5.6153164
Ġhis 1.5159594
Ġfault 0.28475934
Ġin 5.5551753
Ġits 7.6785192
Ġoccurrence 3.572212
. 0.17909433
ĠIt 2.6878674
Ġwould 3.6458845
Ġnot 2.7050397
Ġhave 0.80681854
Ġtrans 6.4642735
pired 0.00077972695
Ġif 0.8714996
ĠDan 11.682289
Ġand 2.7502854
ĠAbby 8.382386
Ġhad 0.6768333
Ġnot 1.0180198
Ġdirected 6.7066708
Ġhim 2.692285
Ġto 0.23256886
Ġthe 3.6136208
Ġun 6.00682
tested 6.4580436
Ġincl 9.489025
ine 0.2505887
Ġwithout 4.891164
Ġany 2.6206086
Ġsupervisor 8.152395
Ġwho 7.1172724
Ġcould 1.100937
Ġhave 0.2966022
Ġa 6.7871027
verted 0.24643016
ĠMr 4.9895144
. 0.0032788406
ĠAlex 0.34524816
’s 0.16502999
Ġinjury 0.88897085
. 0.24066335
ĠHence 5.1499395
, 0.025753358
Ġthe 0.88350445
Ġhealth 8.864852
Ġharm 7.4748516
Ġwas 2.7045217
Ġinst 8.287585
igated 0.02554922
Ġboth 5.143232
Ġby 0.09376421
Ġthe 1.0303133
Ġcorporation 1.1042454
Ġand 0.93527293
Ġby 1.3118088
ĠMr 1.0078981
. 0.004542623
ĠCraig 2.1196558
Ġinadvertently 10.694503
. 0.87271607
ĠNevertheless 4.5778227
, 0.0037566132
Ġthis 4.0375185
Ġdoes 2.124745
Ġnot 0.005993859
Ġimply 2.915691
Ġthat 0.077684514
Ġcompens 10.83054
ating 1.1985425
Ġfor 3.0036342
ĠMr 1.1557505
. 0.003806734
ĠAlex 0.28655708
’s 0.18207687
Ġinjury 0.65992445
Ġfalls 4.8578396
Ġunder 1.782447
ĠMr 3.7420921
. 0.0041059465
ĠCraig 0.21500432
’s 0.027802521
Ġobligation 3.7367704
Ġsince 3.8171303
Ġhis 2.941783
Ġactions 3.3347588
Ġwere 1.1443893
Ġa 3.985942
Ġconsequence 3.924824
Ġof 0.024430702
ĠDan 2.4767208
Ġand 0.32195717
ĠAbby 0.010965525
's 3.8928242
Ġactions 2.466105
. 0.76631904
ĠConsequently 3.5264473
, 0.005173751
Ġthe 0.8326677
Ġcorporation 0.39920798
Ġshould 2.158219
Ġcover 4.615753
ĠMr 1.9425373
. 0.0035291596
ĠAlex 0.20687525
’s 0.23487566
Ġmedical 1.2354609
Ġexpenses 0.8223554
Ġbased 6.9841433
Ġon 0.07507622
Ġthe 0.62595135
Ġseverity 6.293023
Ġof 0.03157192
Ġthe 1.2225585
Ġharm 2.6064365
Ġhe 2.1658888
Ġhas 3.0288572
Ġsustained 2.1225972
Ġand 3.0344992
Ġthe 1.0169451
Ġduration 4.8881106
Ġof 0.17200199
Ġthe 1.1158805
Ġrecovery 3.0819187
Ġperiod 1.2360859
Ġ( 4.7847724
G 4.209099
og 6.4006996
uen 1.9448893
, 0.47227615
Ġn 5.2791095
.d 0.19304878
.). 1.4459947
ĠFurthermore 3.8645763
, 0.0019681277
Ġthe 0.97404397
Ġcorporation 0.25577253
Ġshould 0.4774663
Ġreimburse 3.8879905
Ġfor 3.9144588
Ġthe 0.8675623
Ġski 4.1630564
Ġgear 4.2774878
Ġthat 1.2038355
Ġwas 1.7075176
Ġdamaged 1.7756402
Ġduring 2.2101228
Ġthe 0.2510385
Ġincident 1.495998
.ĊĊ 1.293156
The 2.01303
Ġreality 8.963249
Ġthat 2.2010403
Ġskiing 4.451336
Ġis 0.69501984
Ġa 0.9506784
Ġdistress 3.542091
ing 0.014969788
Ġactivity 0.19055578
Ġimplies 3.8843572
Ġthat 0.03793602
ĠMr 3.9340615
. 0.0027221334
ĠAlex 0.7140575
Ġhimself 8.255975
Ġmust 3.8620095
Ġhave 1.381248
Ġbeen 1.7042396
Ġaware 1.6953828
Ġof 0.20828645
Ġthe 0.25243303
Ġhealth 4.1909046
Ġhazards 0.6971744
Ġhe 2.0461183
Ġwould 2.2009163
Ġencounter 1.5028915
Ġwhen 2.8707652
Ġskiing 1.7838855
Ġpost 10.282775
-season 6.4776545
. 0.50986004
ĠHis 4.050173
Ġchoice 5.2535076
Ġto 0.20212291
Ġski 1.226526
Ġsolo 9.148234
Ġon 2.980611
Ġa 1.4049768
Ġchallenging 5.1895456
Ġincl 1.1571405
ine 0.00030483783
Ġbased 7.954338
Ġon 0.046067383
Ġhis 1.6285654
Ġexpertise 5.94618
Ġindicates 5.0079517
Ġthat 0.21450326
Ġhe 0.30927706
Ġcompreh 7.2668147
ended 0.015366999
Ġall 5.1381693
Ġthe 0.49619317
Ġpotential 2.9550414
Ġrisks 0.89372504
. 2.029942
ĠNonetheless 3.0091622
, 0.0014435686
Ġhis 2.477853
Ġactions 2.9471629
Ġdemonstrate 6.3485727
Ġthat 0.47796524
Ġhe 0.42901632
Ġattempted 7.463333
Ġto 0.044557914
Ġavoid 3.1856635
Ġthe 0.9627018
Ġcollision 7.7170143
Ġand 3.1134577
Ġbehaved 9.930449
Ġprofessionally 6.674862
Ġwithout 6.6016884
Ġbre 7.769224
aching 0.00031639694
Ġany 1.6288143
Ġskiing 10.534236
Ġregulations 2.5357623
Ġand 3.991739
Ġstandards 2.805947
. 0.41171736
ĠIt 3.313236
Ġwas 2.8255558
ĠMr 3.114807
. 0.0039917273
ĠCraig 0.8774459
's 2.9496672
Ġactions 3.5094984
Ġthat 0.4337404
Ġled 1.9047161
Ġto 0.113333434
Ġthe 0.9071275
Ġcrash 4.3199654
. 1.1781282
ĠThus 3.555009
, 0.0056502707
Ġit 2.6362915
Ġis 0.6465081
Ġhis 3.3183584
Ġliability 2.635507
Ġand 3.870673
Ġthe 2.4925528
Ġliability 2.6659462
Ġof 0.06457003
Ġthose 6.738055
Ġwho 0.55803746
Ġdispatched 7.9212704
Ġan 7.971605
Ġinade 7.07265
qu 0.0007125511
ately 0.0033902833
Ġskilled 3.2423148
Ġsk 2.1069245
ier 0.012547913
Ġto 1.3049124
Ġthe 1.2890958
Ġun 2.6893454
tested 0.06511726
Ġslope 2.7409208
. 1.4975722
