A 4.0857735
Ġpolicy 9.174826
Ġbrief 3.4128737
Ġis 3.0237434
Ġa 0.48955852
Ġconcise 1.4231353
Ġexplanation 7.0478797
Ġof 0.09581754
Ġa 0.5534027
Ġparticular 2.5053322
Ġissue 1.5595195
. 1.840516
ĠThe 2.3755043
Ġbrief 2.0439463
Ġpolicy 10.056409
Ġaims 3.9903536
Ġat 2.3606198
Ġgovernment 10.408988
Ġpolicymakers 3.3434446
Ġor 2.9537542
Ġinterested 5.6273727
Ġparties 1.5754634
Ġwho 2.1585867
Ġshape 7.5916905
Ġor 2.024063
Ġinfluence 0.6587987
Ġpolicy 0.974822
. 0.95879793
ĠA 2.5824127
Ġpolicy 0.31186372
Ġbrief 0.056497574
Ġprovides 3.515817
Ġadequate 8.118437
Ġbackground 2.1769788
Ġfor 4.188536
Ġthe 1.0498139
Ġreader 1.7900848
Ġto 0.66247785
Ġcomprehend 4.3364444
Ġthe 0.2290303
Ġproblem 2.1998894
Ġand 1.1723075
Ġpersuade 7.996562
Ġthem 1.2291576
Ġto 0.34700042
Ġhandle 10.556709
Ġit 1.1225195
Ġimmediately 5.929098
. 0.58102953
ĠIt 1.8664418
Ġidentifies 6.0586233
Ġthe 0.6509085
Ġmost 4.003582
Ġeffective 2.8240895
Ġsolutions 2.1878777
Ġto 1.0902964
Ġthe 0.5040946
Ġproblem 0.40808114
Ġand 0.79421026
Ġgives 3.584298
Ġdata 5.958814
Ġto 0.9791053
Ġback 1.7725606
Ġthem 2.0358784
Ġup 0.16726094
. 0.42794362
ĠThe 1.7974298
Ġpolicy 1.4658501
Ġbrief 0.09086679
Ġencourages 6.217786
Ġthe 1.230134
Ġreader 0.60552645
Ġto 0.04900267
Ġmake 3.1185274
Ġthe 2.0874152
Ġbest 2.4038734
Ġdecision 0.6119267
Ġpossible 2.1481185
. 1.4517115
ĠA 2.2647119
Ġgood 2.5146928
Ġpolicy 0.11317068
Ġbrief 0.042287532
Ġshould 1.6123142
Ġbe 0.9095686
Ġconcise 3.0746436
Ġand 1.159286
Ġfocused 4.1920543
Ġon 1.2743237
Ġmeanings 15.907011
Ġrather 3.0506492
Ġthan 0.007029947
Ġprocedures 7.757869
. 0.5967473
ĠThe 2.0269449
Ġpolicy 1.7354193
Ġbrief 0.12056288
Ġshould 0.9214135
Ġconcentrate 6.113497
Ġon 0.070731
Ġa 2.2262745
Ġsingle 1.0771781
Ġissue 1.3578856
Ġor 2.299631
Ġconcern 4.275206
Ġand 1.5476198
Ġgive 3.5734289
Ġenough 3.7712147
Ġevidence 3.242475
Ġfrom 5.710917
Ġmultiple 4.686679
Ġsources 0.43280438
Ġ(“ 11.368886
Ġ 9.279418
202 5.985259
2 5.3959465
ĠN 6.794901
AC 4.252118
o 1.991731
ĠLegislative 1.9287037
ĠConference 1.1004844
ĠLiv 9.870563
est 0.011795736
ream 0.0027135727
s 2.4578314
Ġ” 1.9980464
, 1.9672892
Ġ 0.2974358
202 0.1917693
2 0.90251863
Ġ). 5.1783743
ĠPolicy 3.3181653
ĠBrief 2.7397428
s 1.5733641
Ġon 4.2967987
Ġthe 2.408668
ĠState 5.694496
, 5.1116285
ĠLocal 1.0929227
Ġand 1.5168362
ĠFederal 2.9348853
ĠIssue 7.623625
Ġ 4.925049
1 0.28024128
st 6.983268
Ġpolicy 3.1613705
Ġbrief 0.20302923
ĠEsc 13.086506
al 0.31369978
ating 0.19030578
ĠFood 6.2615757
ĠPrices 1.5354924
Ġ– 5.802257
ĠA 2.4899135
Ġnational 5.9450693
Ġcrisis 2.9002829
ĠAction 9.267147
Ġto 2.556251
Ġbe 0.6260573
Ġtaken 0.14397539
Ġto 3.4427814
Ġeliminate 5.486271
Ġpoverty 5.758918
Ġand 1.31038
Ġhunger 0.8282657
ĠEsc 6.2031903
al 0.0008945476
ating 0.058237996
Ġfood 0.1934882
Ġprices 0.066184156
Ġpose 3.6674309
Ġa 0.20597455
Ġproblem 4.061989
Ġto 1.0121868
Ġthe 1.0689954
Ġpoor 3.1446452
, 2.2755508
Ġgovernment 7.2020955
Ġof 6.3531675
Ġlow 4.6898146
Ġ- 7.082903
Ġincome 1.2242194
Ġcountries 0.34497955
Ġwith 6.395112
Ġhigh 2.7986572
Ġimport 5.077965
Ġbills 2.0024664
, 1.5412697
Ġand 0.47041124
Ġaids 9.9037
Ġagencies 1.5360873
Ġmanaging 8.4822645
Ġincreased 8.88318
Ġdemand 2.0557365
Ġfor 0.5153827
Ġcash 6.601545
Ġand 2.933854
Ġfood 0.4397236
. 1.9092598
ĠThe 1.4131866
Ġpoor 3.6465387
Ġare 1.5597205
Ġunable 3.041119
Ġto 0.009700376
Ġbuy 2.5457091
Ġnutrient 8.152699
. 5.6705933
ĠLow 4.7849183
Ġ- 1.4018931
Ġincome 0.085809514
Ġcountries 0.50023013
Ġface 2.8679678
Ġpolitical 6.899792
Ġunrest 3.2950554
. 2.6373334
ĠThe 1.6714504
Ġproblem 4.259219
Ġeman 8.045678
ates 0.08524974
Ġfrom 0.05157092
Ġa 2.7238276
Ġlack 3.1734316
Ġof 0.017528025
Ġbetter 7.940028
Ġinvestment 5.4525557
Ġin 0.73936975
Ġthe 2.0750766
Ġfood 2.5527103
Ġindustry 2.4611073
Ġand 1.8847831
Ġpoor 3.4478528
Ġmanagement 2.6045454
Ġof 0.3680205
Ġthe 1.5477613
Ġnational 5.0674987
Ġfood 1.2522249
Ġsupply 1.5205399
Ġ( 2.972116
L 4.2323284
ub 5.0806513
ell 1.1009264
, 0.42220226
Ġ 0.37429783
202 1.872618
1 0.9607911
Ġ). 2.686522
ĠWhat 5.1271043
Ġhappens 5.653825
Ġand 5.683962
Ġwhy 0.7864299
? 1.0555766
ĠInitially 8.682483
, 0.068487115
Ġfood 2.0915637
Ġprices 0.67839634
Ġwere 1.2376659
Ġaffordable 4.769084
Ġsince 5.859004
Ġthe 1.227628
Ġfarmers 4.3211384
Ġand 3.3564572
Ġthe 1.8404869
Ġgovernment 1.6154181
Ġhad 2.0165477
Ġinvested 3.07648
Ġa 3.3830914
Ġlot 0.07699746
Ġin 0.4069004
Ġthe 0.4575401
Ġagriculture 2.7776058
Ġindustry 1.1013846
. 0.19834588
ĠSince 4.7481127
Ġ 1.8732802
200 0.34367597
0 2.4126472
, 0.1348487
Ġfood 1.9450872
Ġprices 0.23641402
Ġhave 0.36748242
Ġstarted 5.470914
Ġescalating 2.2779408
Ġdue 1.963815
Ġto 0.004829292
Ġthe 2.0383935
Ġincrease 2.7404385
Ġcost 9.587192
Ġof 0.05971409
Ġfertil 3.005366
izers 0.04732804
, 0.56375295
Ġfarm 4.7636414
Ġmachinery 1.5258219
, 0.18822289
Ġand 0.7896669
Ġchemicals 4.456949
. 0.5155304
ĠAn 5.6717467
Ġincrease 0.33631107
Ġin 0.050553247
Ġfood 2.7344978
Ġprices 0.33454224
Ġwas 4.5166607
Ġdue 2.6913729
Ġto 0.0083667
Ġincrements 11.224371
Ġin 0.07466731
Ġfuels 7.999565
Ġprices 2.3475354
. 1.2023957
ĠImpact 10.361645
Ġon 1.2074599
Ġthe 0.67096275
Ġpoor 1.032274
, 2.7598014
Ġlow 2.5398602
Ġ- 0.65592223
Ġincome 0.022438707
Ġcounties 5.054929
Ġand 1.3750235
Ġfarming 8.542353
Ġindustries 3.7299373
ĠThe 1.3409089
Ġpoor 0.9024257
Ġspend 4.4109826
Ġmost 1.8916442
Ġof 0.025287831
Ġtheir 0.0388915
Ġincome 0.84124136
Ġon 0.13600028
Ġfood 0.10595648
; 4.473402
Ġhence 1.4314395
Ġescalating 4.4841638
Ġfood 0.19775292
Ġprices 0.03190093
Ġcontribute 6.0102077
Ġto 0.08294857
Ġhigh 3.5181813
Ġexpenditure 6.151266
, 3.112238
Ġwhich 1.6986557
Ġis 2.6440294
Ġnot 1.8741745
Ġmanageable 4.220479
. 0.5041295
ĠThe 1.5076964
Ġhigher 6.6663523
Ġfood 1.3600483
Ġprices 0.14950635
Ġcontribute 2.9484756
Ġto 0.019375326
Ġhigher 3.7813451
Ġtransport 5.56478
Ġcosts 0.549574
Ġthat 4.018608
Ġaffect 2.0572453
Ġfarmers 3.5006142
Ġ’ 7.842404
Ġincome 2.5267217
. 0.636719
ĠThe 1.3573544
Ġlow 3.1893637
Ġ- 0.23954447
Ġincome 0.046441503
Ġcountries 0.38103896
Ġface 2.341639
Ġpressure 5.3881464
Ġfrom 1.2678744
Ġthe 1.2090673
Ġbills 8.972495
, 2.7033205
Ġleading 4.9307165
Ġto 0.025320258
Ġlow 4.6130056
Ġeconomic 3.2219474
Ġdevelopment 2.3769152
Ġand 2.264485
Ġgrowth 4.286124
Ġ( 2.34307
L 0.53163487
ub 0.027781649
ell 0.0012405869
, 0.014714455
Ġ 0.002611925
202 0.0019670548
1 0.005253441
Ġ). 0.10783821
ĠPolicy 3.1961641
Ġrecommendation 3.7268984
ĠUrg 8.74662
ent 0.099045075
Ġaction 1.604405
Ġis 1.2154359
Ġrequired 0.9349955
Ġto 0.20693497
Ġeliminate 3.2040565
Ġdistress 11.031812
Ġthat 4.4086065
Ġeman 5.1207566
ates 0.03505981
Ġfrom 0.022617264
Ġescalating 1.2860417
Ġfood 0.034234073
Ġprices 0.025023248
, 3.8031416
Ġand 2.8731089
Ġmore 5.6267805
Ġresources 3.5608048
Ġare 1.8408508
Ġneeded 1.0278505
Ġto 0.39280748
Ġsupport 2.7959502
ĠW 12.132072
EP 12.737006
Ġand 2.8831282
Ġassist 6.798153
Ġdeveloping 3.9496875
Ġcountries 0.23331518
Ġwith 3.3900564
Ġhigher 4.297968
Ġimport 1.2432648
Ġbills 0.13877948
. 0.46130323
ĠRelevant 7.503461
Ġpolicies 3.1175582
Ġare 3.1373212
Ġrequired 2.1285365
Ġto 0.20834413
Ġhelp 3.7285917
Ġfarmers 2.6865587
Ġproduce 3.5954897
Ġmore 0.7369618
Ġfood 0.7759254
. 1.9809862
ĠConclusion 4.600463
ĠThe 1.5928973
Ġcorrect 9.458067
Ġmeasure 4.9530478
Ġis 1.5626541
Ġneeded 2.1899686
Ġto 0.14745258
Ġcontrol 3.4417155
Ġthe 1.2754916
Ġfood 2.1918921
Ġprices 0.85525095
Ġand 1.4728377
Ġpromote 4.694373
Ġeconomic 2.5591187
Ġgrowth 0.5430472
. 0.7713951
ĠThe 1.6911789
Ġgovernment 1.8026298
Ġmust 2.6040766
Ġregulate 5.0414033
Ġthe 0.5615093
Ġoil 5.247888
Ġprices 1.0334721
Ġto 1.155781
Ġenable 4.1634665
Ġfarmers 1.0660377
Ġand 2.682354
Ġthe 1.1748897
Ġagriculture 4.2001095
Ġindustry 0.19652613
Ġto 0.100244746
Ġreduce 3.3547623
Ġtheir 1.8828214
Ġincome 6.4324207
Ġ- 10.6454
Ġexpenditure 4.6504245
Ġhence 7.9738235
Ġlow 5.5037155
Ġfood 0.84996593
Ġprices 0.11004668
. 0.42182088
Ġ 1.3215438
2 0.022685103
Ġnd 3.6512802
Ġpolicy 0.10862955
Ġbrief 0.011990816
ĠNatural 6.620596
Ġresources 2.953625
: 3.6215978
Ġclimate 5.5436535
Ġchange 0.2498401
Ġchallenge 6.8014674
ĠThe 3.3929148
Ġchange 6.1089277
Ġof 1.6000364
Ġclimate 0.64282477
Ġhas 1.8256358
Ġoccurred 4.9052877
Ġrecently 5.782145
Ġin 3.4060516
Ġthe 0.55245835
Ġcountries 6.738148
Ġthat 1.9176162
Ġcannot 6.5022154
Ġhandle 2.7382836
Ġthe 0.8556058
Ġchange 2.1452928
. 0.62780654
ĠThe 0.7771661
Ġdeveloping 5.8269377
Ġcountries 0.18530077
Ġare 1.18562
Ġthe 2.2663434
Ġmost 0.47604415
Ġaffected 0.1501785
Ġbecause 3.2471766
Ġthey 0.64097583
Ġdepend 3.1780655
Ġon 0.13902113
Ġnatural 1.3141236
Ġresources 0.038815707
. 1.5925174
ĠThe 0.9273643
Ġcountries 2.7571764
Ġface 3.3516068
Ġglobal 6.286594
Ġwarming 0.317959
Ġdue 2.5292258
Ġto 0.0035561235
Ġindustrial 4.308803
ization 0.36795452
. 1.7861142
ĠEffective 8.513358
Ġmanagement 2.5302706
Ġof 0.2174102
Ġthe 1.4070857
Ġnatural 0.79516506
Ġresources 0.08471089
Ġleads 5.2952323
Ġto 0.004043495
Ġclimate 3.6646814
Ġand 5.813244
Ġsuitable 9.327145
Ġdevelopment 3.8230286
. 0.87745315
ĠSoil 8.096796
Ġerosion 0.87459606
ĠMost 10.630772
Ġof 0.58581513
Ġthe 0.012509895
Ġlands 4.6303654
Ġare 1.2157537
Ġaffected 2.655068
Ġby 0.09867219
Ġsoil 0.3904913
Ġerosion 0.03300325
Ġdue 1.5080233
Ġto 0.002191541
Ġcutting 5.7278447
Ġdown 0.66860044
Ġthe 2.4090633
Ġtrees 0.3087633
Ġand 1.2850851
Ġpoor 2.6407528
Ġmanagement 1.8146961
Ġof 0.25340733
Ġthe 0.38176763
Ġenvironment 3.5212965
, 4.0085487
Ġlike 6.6435633
Ġpoor 3.146259
Ġcultivating 7.458265
Ġand 2.8850222
Ġgrazing 3.8756
Ġpractices 1.585518
. 0.29228282
ĠFirst 10.059889
Ġrain 6.999184
falls 2.935202
ĠLow 12.582516
Ġrain 3.2703
Ġleads 9.832572
Ġto 0.0057536303
Ġlow 2.067824
Ġcrop 2.2189372
Ġproduction 0.8223969
Ġand 1.5398438
Ġdesert 5.303911
ification 0.07721486
. 0.6594718
ĠIt 3.4698374
Ġmakes 4.60309
Ġthe 0.6889356
Ġfarmers 3.903729
Ġhave 4.590619
Ġdifficulty 4.719249
Ġplanning 6.4380965
Ġcrop 5.959918
Ġcultivation 3.102321
, 2.4740136
Ġresulting 4.247571
Ġin 0.054978095
Ġa 2.8619223
Ġdeveloping 11.229204
Ġcountry 0.42643616
. 2.0049872
ĠPolicy 5.5113354
Ġrecommendation 0.5377395
ĠThe 1.2891506
Ġgovernment 0.77866316
Ġprotects 9.778737
Ġthe 0.31290606
Ġwater 4.7684383
Ġcatch 3.0790238
ment 0.62775457
Ġareas 0.23783208
Ġand 1.3121649
Ġnatural 4.447213
Ġforests 1.6504626
Ġwithin 7.9611945
Ġar 7.5335255
id 0.28047156
Ġand 0.5547164
Ġsemi 0.20716533
Ġ- 0.17790535
Ġar 0.04835955
id 5.967624e-05
Ġregions 1.7219017
. 0.58058536
ĠThe 1.0505844
Ġgovernment 0.45280546
Ġpromotes 4.2763653
Ġfarm 6.7055664
Ġlevels 9.949797
Ġto 2.2321825
Ġmitigate 5.2322493
Ġclimate 2.7087784
Ġchange 0.20257929
. 0.8406529
ĠConclusion 1.4532609
ĠThe 0.78699845
Ġpractical 8.991361
Ġmeasures 1.7031795
Ġto 3.079794
Ġbe 3.164342
Ġput 3.5387206
Ġin 0.17062746
Ġplace 0.05293518
Ġto 0.8877387
Ġcontrol 2.5198088
Ġadverse 6.5198135
Ġatmospheric 8.682014
Ġcondition 3.8914442
Ġchanges 6.65947
Ġthat 3.2193341
Ġcontribute 3.8244162
Ġto 0.008455239
Ġclimate 1.2624716
Ġchange 0.17602338
Ġ( 3.0655913
L 1.9345247
ub 0.100836694
ell 0.002197241
, 0.017336132
Ġ 0.001970981
202 0.0032643382
1 0.0093033705
Ġ). 0.09286498
Ġ 0.45663962
3 0.0137370145
Ġrd 0.1767469
Ġpolicy 0.019369597
Ġbrief 0.008701675
ĠSuitable 10.783598
Ġagriculture 5.9316177
Ġand 2.3418372
Ġrural 3.6680565
Ġdevelopment 0.35297477
Ġ– 4.8096313
Ġstrengthening 7.654571
Ġrural 3.1089897
Ġand 3.732926
Ġagricultural 1.2473525
Ġbusiness 6.2012725
ĠSuitable 5.547273
Ġagriculture 0.16811197
Ġand 0.44574162
Ġrural 0.072806805
Ġdevelopment 0.08331641
Ġsatisfy 11.152639
Ġeconomic 5.6775293
, 1.0676539
Ġsocial 0.41328338
, 0.4613818
Ġand 0.23221497
Ġcultural 2.5723789
Ġneeds 0.44574037
Ġwithout 6.7489433
Ġendanger 4.150175
ing 0.003085852
Ġfuture 3.2567406
Ġgenerations 0.3548122
. 0.24020676
ĠThere 4.569452
Ġmust 3.6336553
Ġbe 0.03174539
Ġan 2.3226094
Ġincreased 4.3638196
Ġand 4.208368
Ġexpanded 5.7047567
Ġrural 3.1610584
Ġeconomy 2.430149
Ġfor 3.6470115
Ġbetter 3.982036
Ġagriculture 2.8406951
Ġand 0.7209582
Ġrural 0.50358874
Ġdevelopment 0.21077438
. 0.16880356
ĠFree 9.674826
Ġand 2.4886484
Ġfair 0.3966015
Ġtrade 0.59782535
ĠFree 5.6961336
Ġand 0.37579897
Ġfair 0.026837314
Ġtrade 0.08297546
Ġhelps 3.4823098
Ġdeveloping 3.560721
Ġcountries 0.112389214
Ġprovided 12.4994335
Ġthey 1.348992
Ġhave 1.4011437
Ġhumans 12.512941
, 2.1324663
Ġtechnology 4.3826246
, 0.093072034
Ġand 0.410026
Ġinfrastructure 3.2138815
Ġto 1.4137766
Ġcompete 2.2887692
Ġinternationally 3.7279396
. 0.16165692
ĠIncome 7.975902
Ġgeneration 2.7856138
ĠRoad 12.338884
Ġdevelopment 2.5624657
Ġand 1.4000008
Ġtransport 3.9066317
Ġpromote 5.8129416
Ġaccess 4.752839
Ġto 0.12143638
Ġthe 2.4108028
Ġmarkets 1.6677947
, 1.5196899
Ġhence 3.4082446
Ġincreasing 1.9245015
Ġincome 0.88134533
Ġamong 5.5358353
Ġthe 0.4832934
Ġfarmers 1.1720542
. 0.3741936
ĠThe 2.415054
Ġpromotion 5.5839167
Ġof 0.075383276
Ġthe 2.4206707
Ġlocal 3.9461784
Ġproducts 3.1501727
Ġfacilitates 5.461107
Ġincrements 13.814328
Ġin 0.079541214
Ġthe 1.332894
Ġrevenue 4.691409
. 1.8549234
ĠPolicy 1.6797482
Ġrecommendation 0.111939095
ĠThere 3.2617166
Ġis 0.69384193
Ġa 0.20237045
Ġneed 0.06446565
Ġto 0.6172878
Ġimprove 2.8847802
Ġaccess 3.436819
Ġto 0.1292792
Ġthe 1.4761962
Ġmarkets 1.0715889
Ġand 1.2754542
Ġdevelop 3.7435691
Ġsound 7.723499
Ġtransport 2.7766757
Ġsystems 1.4792454
, 3.5009222
Ġroads 4.2825384
, 0.18203512
Ġand 0.17934944
Ġcommunication 2.814274
Ġchannels 3.2822707
Ġfor 3.0458274
Ġmore 4.8970013
Ġproduction 4.317956
Ġand 0.881752
Ġincreased 3.1063213
Ġincome 0.5823531
Ġgeneration 2.20465
. 0.5523417
ĠConclusion 0.86920786
ĠThe 0.95522153
Ġbest 4.987178
Ġmeasures 2.5429008
Ġare 1.4920355
Ġrequired 1.2699267
Ġto 0.099923976
Ġfacilitate 3.2031672
Ġincome 2.9540005
Ġgeneration 0.1137991
Ġto 3.1850657
Ġsatisfy 6.2021933
Ġthe 0.5154613
Ġeconomy 4.6765647
. 1.798555
ĠGun 13.339173
ĠViolence 2.8183503
Ġin 1.9077536
ĠAmerica 1.5049051
ĠGun 1.2135437
Ġviolence 0.096072815
Ġis 1.1450721
Ġviolence 5.7519774
Ġthrough 5.51775
Ġpistols 9.403807
, 0.4398631
Ġshot 2.8230963
guns 0.0060017905
, 0.023676798
Ġand 0.91241676
Ġmachine 4.697278
Ġguns 0.074895956
. 0.47427845
ĠThe 1.2601613
Ġviolence 2.052909
Ġresults 2.7446678
Ġin 0.8575286
Ġhomicide 4.950291
, 0.3143214
Ġmass 5.12818
Ġshooting 1.388627
, 0.06116411
Ġor 3.7916174
Ġsuicide 1.1075273
. 0.23115669
ĠIn 3.7989535
ĠAmerica 1.4972165
, 0.03515131
Ġmany 4.029981
Ġpeople 0.5656369
Ġhave 1.7323879
Ġdied 1.05316
Ġdue 0.8684446
Ġto 0.0016874394
Ġgun 0.33046713
Ġviolence 0.059902404
. 0.61733
ĠGun 2.7031298
Ġviolence 0.16495155
Ġin 2.696217
ĠAmerica 0.26894677
Ġneeds 5.254749
Ġapplicable 10.999613
Ġbackground 8.845975
Ġchecks 3.6902294
. 2.4007282
ĠPolit 8.056779
icians 0.037246335
Ġand 2.0657656
Ġthe 1.6117102
Ġconcerned 5.4945707
Ġgroups 3.3892386
Ġneed 2.6394446
Ġto 0.13959888
Ġensure 4.1943545
Ġfederal 7.691
Ġregulation 4.646177
Ġon 2.0935397
Ġgun 1.1672763
Ġownership 1.5637327
Ġ( 2.9966888
V 5.4712543
ern 4.092931
ick 0.42589638
Ġet 2.6811814
Ġal 0.027324729
. 2.3196301
Ġ, 0.18903957
Ġ 0.013798395
201 0.9128295
7 2.0408711
Ġ). 0.26647857
ĠThe 1.8215406
Ġgovernment 1.904764
Ġneeds 1.607157
Ġto 0.06951928
Ġinvolve 6.5699053
Ġa 4.2923646
Ġjustice 8.939112
Ġdepartment 1.7678128
Ġto 0.8428617
Ġensure 2.404823
Ġanyone 7.7908287
Ġwho 1.298415
Ġviolates 3.6067963
Ġthe 0.5391761
Ġrelated 9.183369
Ġlaws 0.9225726
Ġon 4.0285635
Ġgun 0.36989737
Ġviolence 1.3927
Ġis 0.6319874
Ġprosecuted 1.9304907
Ġin 3.6307676
Ġcourt 1.6248925
. 0.17453085
ĠThe 0.9705057
Ġgovernment 0.7433194
Ġand 3.5009449
Ġpoliticians 3.8765423
Ġhave 3.9519851
Ġdeveloped 5.3651395
Ġthe 2.9933748
Ġnecessary 3.2990131
Ġplan 6.3335238
, 3.7858903
Ġsuch 3.8982177
Ġas 0.011842503
Ġno 6.762101
Ġsales 4.819042
Ġof 0.7072764
Ġfirearms 2.2757792
Ġto 0.33818725
Ġun 6.0647616
licensed 1.397524
Ġgroups 6.9828825
Ġor 2.4561014
Ġindividuals 1.1365556
, 1.7524993
Ġlicensing 6.3844724
Ġthe 3.52778
Ġcompany 9.452686
Ġthat 1.28717
Ġsells 1.4176381
Ġthe 1.6768159
Ġgun 2.3979392
, 0.61514896
Ġand 0.5617747
Ġprohibiting 4.7574825
Ġindividuals 3.863231
Ġfrom 2.75459
Ġcarrying 2.2425694
Ġthe 2.7485619
Ġweapon 3.2728467
Ġin 0.9908762
Ġpublic 0.8640568
. 1.3077667
ĠThe 1.0175976
Ġimplementation 5.9184833
Ġof 0.100962885
Ġthe 0.4282969
Ġfederal 4.8101907
Ġregulations 2.2230654
Ġwill 2.1028886
Ġminimize 3.4380243
Ġgun 0.669053
Ġviolence 0.07233675
Ġamong 4.694949
ĠAmericans 2.205651
. 0.5868859
ĠThe 1.6296352
Ġpolitician 7.5256033
Ġorganized 10.724136
Ġthe 1.8218598
Ġcongress 4.7676845
Ġto 0.8061711
Ġsupport 4.5449896
Ġthe 0.5250883
Ġnational 4.6661644
Ġlaws 4.1222267
Ġgoverning 5.293199
Ġmachine 10.909628
Ġguns 0.6186509
Ġ’ 9.818352
Ġlicensing 5.2751813
. 1.3854002
ĠIf 6.1352444
Ġthe 0.5375745
Ġset 9.226848
Ġregulations 2.2179427
Ġare 0.28617752
Ġadher 3.818643
ed 0.00055410556
Ġto 0.03449496
, 0.14855643
Ġthere 2.0976014
Ġwill 0.14795475
Ġbe 0.021102432
Ġa 1.4367169
Ġreduction 0.96919775
Ġin 0.14798795
Ġgun 0.5412271
Ġviolence 0.075643584
Ġin 1.1459668
ĠAmerica 0.2911542
Ġ( 1.2128115
V 0.22597061
ern 0.0012641635
ick 0.0010188753
Ġet 0.015095317
Ġal 0.0022845494
. 0.036896206
Ġ, 0.0024563917
Ġ 0.00145464
201 0.0014305939
7 0.002699782
Ġ). 0.059133023
