The 3.1909826
Ġconcept 7.315905
Ġof 0.25011015
ĠWh 10.358191
iten 2.7373004
ess 0.032407116
Ġin 2.415201
ĠGet 10.507683
ĠOut 0.6990978
Ċ 5.300446
Get 5.643841
ĠOut 0.098919064
Ġdemol 13.335515
ishes 0.012045575
Ġthe 0.585991
Ġmyth 3.5416842
Ġof 0.51251256
ĠAmerica 6.3980703
Ġas 1.053752
Ġa 0.47734123
Ġpost 3.718275
-r 0.11004401
acist 4.170169
Ġcountry 2.1171339
. 0.80549204
ĠEverything 6.547099
Ġalarming 13.671164
, 3.500544
Ġas 5.8043165
Ġeverything 6.2326617
Ġamusing 8.837172
, 0.769685
Ġin 3.4711537
ĠGet 2.3509424
ĠOut 0.0027361629
Ġarises 5.992819
Ġfrom 0.38041097
Ġthe 0.79807806
Ġdread 8.210691
Ġthat 1.8539748
Ġmembers 9.846004
Ġof 0.0073996917
Ġthe 0.72877014
Ġformer 8.426468
Ġmaster 5.82957
Ġrace 0.2393887
Ġand 5.832759
Ġthe 1.3318676
Ġformer 3.858014
Ġslave 1.1693366
Ġrace 1.3815325
Ġhold 5.315323
Ġfor 2.3990188
Ġeach 0.7063531
Ġother 0.008815232
. 0.47029334
ĠHolmes 15.451975
Ġobserves 7.113791
Ġthat 0.8627529
Ġin 3.4457188
Ġthis 3.6752086
Ġfilm 2.7977223
, 0.5066144
Ġthe 1.840091
Ġadversaries 11.618494
Ġare 1.1553192
Ġnot 1.8439916
Ġwhites 3.8597717
Ġwho 4.3291187
Ġdet 7.5549154
est 0.01746828
Ġblacks 0.37516445
Ġfor 5.2884383
Ġtheir 1.441053
Ġrace 3.0618994
. 2.8272235
ĠThe 2.5257063
Ġfilmmaker 8.940559
Ġportrays 5.6299896
Ġwhites 3.5646114
Ġwho 2.0683599
Ġadore 6.72584
Ġblacks 0.60210127
Ġand 2.4943652
Ġeven 5.3296185
Ġcov 6.272464
et 0.0047062575
Ġthem 0.6616509
Ġwith 6.1336
Ġeerie 8.783388
, 3.0053747
Ġrisky 11.560893
, 1.8903044
Ġand 0.5661905
Ġinsensitive 9.003895
Ġcontr 9.87326
apt 3.8684359
ions 0.00018840152
. 0.81079185
ĠIt 3.6425447
Ġdis 8.460511
credits 2.5475917
Ġthe 0.41548514
Ġidea 2.2607708
Ġof 0.91324687
Ġan 3.6090446
Ġideal 2.8965816
Ġculture 6.483966
Ġof 1.936224
Ġpolitical 7.854791
Ġcorrectness 0.29696733
Ġas 4.3490376
Ġif 5.084835
Ġasserting 10.5538435
Ġthat 0.4739197
Ġit 3.0620773
Ġis 0.7344468
Ġracist 4.719886
Ġto 0.44021407
Ġtreat 5.8556757
Ġsomeone 3.9466863
Ġpositively 6.961357
Ġsolely 6.217469
Ġbecause 0.29624617
Ġof 0.6243893
Ġtheir 0.63006663
Ġskin 2.0023003
Ġcolor 0.20308617
.Ċ 3.4713771
Get 2.8473148
ĠOut 0.008283109
Ġinitially 7.923795
Ġresembles 7.2809515
, 6.570362
Ġand 1.7921287
Ġat 4.434779
Ġsome 2.4696114
Ġpoint 0.77051747
Ġdirectly 7.099027
Ġmocks 6.0319433
, 0.078243904
ĠGuess 12.85075
ĠWho 0.045106266
’s 0.38670343
ĠComing 0.02159569
Ġto 0.07365743
ĠDinner 0.017855251
ĠStanley 15.110036
ĠKramer 0.33427858
’s 0.4063021
Ġnot 8.203178
Ġthe 5.605198
Ġmost 2.2042794
Ġremarkable 6.082321
Ġbut 5.793043
Ġhistorically 6.5010643
Ġsignificant 0.8835195
Ġmovie 2.3263822
Ġabout 1.8345714
Ġa 3.649327
Ġgirl 9.090124
Ġwho 1.9277872
Ġintroduces 7.2544403
Ġher 0.49151665
Ġparents 2.669446
Ġto 0.15663345
Ġa 1.8881626
Ġblack 0.49736333
Ġgroom 9.287093
. 0.7521855
ĠIt 2.439585
Ġwas 2.6496172
Ġcreated 6.134062
Ġexactly 7.2621617
Ġ 1.1237725
50 0.64163655
Ġyears 0.0073854863
Ġago 0.83433026
Ġ– 5.986833
Ġwhen 4.587114
Ġinterracial 3.152606
Ġmarriage 1.1643025
Ġwas 0.2541504
Ġa 2.843796
Ġscandal 3.2759082
Ġand 1.8141572
Ġjust 6.3128614
Ġceased 12.846905
Ġto 0.194853
Ġbe 0.36114874
Ġa 1.8111255
Ġcrime 4.535399
. 0.9570098
ĠNowadays 7.2767253
, 0.26745892
Ġit 1.7544513
Ġappears 4.412667
Ġlike 2.816121
Ġa 0.8542043
Ġrelic 4.0909023
Ġfrom 1.9298784
Ġthe 0.9367848
Ġpast 0.7571721
; 4.1166253
Ġhowever 1.990723
, 0.03452375
Ġthe 2.072208
Ġquery 11.56317
Ġstill 3.0648785
Ġemerges 6.8356423
: 0.86019015
Ġ“ 4.0472627
Has 5.0341635
Ġeverything 5.477886
Ġimproved 5.151411
Ġsince 2.1298766
Ġthen 1.070752
? 2.1246178
”. 2.4795005
ĠIn 2.6204796
ĠKramer 8.450361
’s 0.02339968
Ġfilm 1.0293615
, 0.069860846
Ġthe 1.0791985
Ġsubt 10.662607
let 0.10826119
y 0.5999092
Ġwas 4.944539
Ġthat 2.801674
Ġthe 0.95492357
Ġparents 2.7103112
Ġwere 1.6139079
Ġprogressive 8.943876
Ġliberals 3.905694
, 1.514337
Ġbut 2.4027443
Ġtheir 1.8898861
Ġdaughter 2.0346487
’s 1.8345388
Ġengagement 6.4596186
Ġto 1.445184
ĠSidney 9.447977
ĠPo 2.7853203
it 0.029204173
ier 0.00050847256
Ġwas 3.583887
Ġa 1.6510005
Ġshock 3.121094
Ġeven 5.427667
Ġfor 0.9118398
Ġthem 0.27966672
. 0.4561201
ĠPeel 14.260804
Ġadjusts 9.994536
Ġfor 4.84254
Ġthe 1.0502405
ĠObama 10.615032
Ġera 1.0232551
Ġand 1.6957995
Ġcarries 8.861536
Ġthe 1.9677434
Ġsituation 6.1910796
Ġto 1.2446429
Ġthe 0.9649885
Ġbrink 5.968495
Ġof 0.3033099
Ġabsurd 2.651287
ity 0.035853934
Ġ– 4.3008714
ĠRose 10.904434
’s 2.4617977
Ġparents 0.9261296
Ġand 4.767956
Ġtheir 2.1969848
Ġacquaint 6.934558
ances 0.0023661323
, 2.957648
Ġelderly 9.710592
Ġaffluent 9.800009
Ġwhites 2.3977323
, 0.5825244
Ġgo 5.126555
Ġout 2.8139775
Ġof 0.53649545
Ġtheir 0.08642964
Ġway 0.09731662
Ġto 0.060325127
Ġdemonstrate 4.798438
Ġtheir 0.99622554
Ġopenness 6.0247164
. 3.0813947
ĠThey 1.8460445
Ġpraise 6.7435913
ĠObama 6.128254
, 1.8273329
Ġdiscuss 5.27466
ĠJesse 9.956281
ĠOwens 1.9794163
Ġand 2.0531788
ĠTiger 7.793307
ĠWoods 0.082980394
, 0.40997374
Ġuse 6.192952
Ġawkward 8.672402
Ġslang 3.310087
, 0.88710886
Ġand 0.54899085
Ġalmost 7.171399
Ġstart 5.3198347
Ġr 7.7079797
apping 0.8658952
. 0.9068771
ĠBut 3.7939582
Ġall 4.1028504
Ġthis 1.172771
, 4.0304775
Ġof 1.6130072
Ġcourse 0.003391591
, 0.0041215
Ġonly 3.2656562
Ġconfirms 4.6176796
Ġthat 1.3958426
Ġthe 1.4767185
Ġgap 7.445917
Ġthat 4.8327646
Ġseparates 1.4711407
Ġthe 1.2073884
ĠAmerican 5.90197
Ġpeople 3.2599664
Ġhas 2.1032593
Ġnot 1.279614
Ġdisappeared 2.3545382
; 3.751467
Ġa 4.995599
Ġlovely 10.184918
Ġfence 9.104265
Ġhas 2.850963
Ġenclosed 9.718573
Ġit 1.302636
.Ċ 1.4748607
P 6.350054
ee 4.46383
le 0.009368685
Ġemploys 6.9471383
Ġthese 5.0234203
Ġminor 7.1441145
, 3.1074424
Ġeveryday 4.3989396
Ġoccurrences 3.3024273
Ġin 2.8935285
ĠGet 1.9915723
ĠOut 0.004605519
Ġto 0.51538503
Ġillustrate 3.0992432
Ġhow 2.0241663
Ġsomeone 8.245976
Ġinadvertently 11.020959
Ġor 3.1973138
Ġintentionally 1.5354832
Ġmakes 4.0792603
Ġanother 4.552652
Ġfeel 3.9387693
Ġlike 3.396243
Ġan 0.79549414
Ġoutsider 0.48415875
. 0.7244253
ĠAccording 6.8160253
Ġto 0.0028166473
ĠGrant 9.743306
, 0.8663601
Ġthis 3.3215008
Ġfost 11.673007
ers 0.001743843
Ġan 2.5886445
Ġever 6.6547575
-growing 1.8882358
Ġsense 1.7887866
Ġof 0.031388953
Ġanim 5.5172577
osity 0.08442137
. 1.9760332
ĠThe 1.9583789
Ġfilm 1.8477247
’s 1.7547683
Ġpower 6.5310235
Ġis 1.692127
Ġthat 1.6220648
Ġit 0.42810857
Ġemploys 7.1502376
Ġdistress 11.76962
ing 0.7903518
Ġmoments 3.6686506
Ġto 1.0947832
Ġcommunicate 5.157734
Ġto 4.662921
Ġthe 0.46695477
Ġaudience 0.4444342
Ġthe 1.8074316
Ġreality 4.668362
Ġabout 5.284538
Ġdisplays 13.868418
Ġof 0.17853455
Ġracism 1.2392055
. 1.0576866
ĠPee 4.089219
le 8.506662e-05
’s 1.5908731
Ġfilm 1.7422518
Ġappeals 7.956498
Ġboth 5.854154
Ġto 0.06730833
Ġindividuals 5.678013
Ġwho 0.4886055
Ġhave 2.031431
Ġencountered 3.909929
Ġracism 0.6171833
Ġand 0.57098556
Ġindividuals 3.847507
Ġwho 0.10512687
Ġmay 4.7007647
Ġnot 2.1263323
Ġalways 7.6408677
Ġcomprehend 5.7453413
Ġthat 3.9261847
Ġthey 1.490234
Ġare 0.9132013
Ġperpet 5.7061777
rating 0.9306512
Ġit 1.1796893
.Ċ 1.4604311
Instances 10.587465
Ġin 1.9216664
Ġcinema 8.676787
, 2.6983054
Ġtelevision 4.6335244
, 0.28973684
Ġor 2.780069
Ġmedia 4.5980544
Ġwhere 4.234186
Ġwh 7.3723993
iten 0.0012651171
ess 0.0005021584
Ġappears 3.882947
Ġto 1.9124038
Ġbe 0.4534592
Ġthe 1.9130998
Ġnorm 1.5093046
Ċ 4.684765
Indeed 8.026125
, 0.016471133
Ġin 2.92714
Ġnumerous 6.3855186
Ġfilms 1.7817597
, 0.6175453
Ġfor 5.571128
Ġa 4.9458404
Ġblack 5.767777
Ġprotagonist 3.7061305
Ġto 1.5642955
Ġbe 1.7085243
Ġacknowledged 6.696076
Ġby 2.227987
Ġthe 1.9322933
Ġviewer 4.7940617
, 1.1062276
Ġthey 3.2210493
Ġneed 1.9849708
Ġto 0.03927463
Ġhave 3.6236715
Ġa 1.3479644
Ġremarkable 5.9071918
Ġnarrative 6.6108274
. 2.1249804
ĠConversely 6.10106
, 0.0073474967
ĠSy 14.006485
ed 3.5682745
Ġargues 4.752789
Ġthat 0.31135297
Ġwhite 3.5001397
Ġcharacters 1.0719782
Ġare 1.5101421
Ġcaptivating 10.748205
Ġby 3.8901215
Ġthe 2.586149
Ġmere 5.271511
Ġfact 0.4431582
Ġof 1.12517
Ġtheir 0.9646373
Ġpresence 3.0243628
. 0.8871731
ĠFor 3.2928634
Ġinstance 0.895426
, 0.012139797
Ġmovies 7.7339563
Ġlike 1.102194
ĠJe 9.1840315
ze 0.68680286
bel 0.009642407
Ġ( 1.4068694
193 2.035173
8 0.513681
), 1.028639
ĠGone 4.2516365
Ġwith 0.44445163
Ġthe 0.0058275913
ĠWind 0.0054645054
Ġ( 0.023982367
193 0.012325746
9 0.017060075
), 0.059084598
ĠDix 8.0784645
iana 9.495851
Ġ( 0.27229565
193 1.5624669
0 3.4165947
), 0.16544774
Ġand 1.0212544
ĠMississippi 6.961755
Ġ( 3.427691
193 0.4759154
5 3.580835
) 0.23663571
Ġboth 7.878033
Ġcamouflage 11.445163
Ġand 2.0522113
Ġreveal 3.0886192
Ġthe 0.84763825
Ġcapitalist 9.626465
Ġexploitation 3.862042
Ġof 0.18943943
ĠAfricans 4.9197965
. 1.1551957
ĠThese 2.8660479
Ġfilms 0.8691368
Ġdepict 3.310727
ĠAmerican 5.8987145
Ġlabor 8.389984
Ġthrough 6.1177444
Ġdep 5.6068482
ictions 0.01015303
Ġof 0.028932175
Ġlavish 7.676795
Ġplant 4.9913054
ations 0.009751485
Ġand 1.1327883
Ġdazzling 8.430452
ly 4.8808928
Ġaffluent 5.143654
Ġwhite 2.04156
Ġsouthern 7.0020676
Ġfamilies 2.0485182
. 0.51891667
ĠIn 2.2889628
Ġthese 1.8100382
Ġfilms 0.6863907
, 0.0406023
Ġthe 1.3943967
Ġinf 10.597379
lex 3.6741266
ibility 0.15393047
Ġof 0.24184677
Ġwh 3.5276315
iten 0.00017469678
ess 0.0002930367
Ġis 0.8818385
Ġpreserved 8.224146
Ġthrough 2.1971066
Ġinterracial 8.380867
Ġrelationships 1.6295694
. 1.4981562
ĠWhites 6.1361074
Ġgovern 10.265979
Ġbut 7.839391
Ġrely 7.3447537
Ġon 0.15239215
Ġblacks 1.924024
, 2.4218745
Ġto 5.8573275
Ġthe 1.5081893
Ġextent 1.5394633
Ġthat 0.22629124
Ġthe 1.9190612
Ġactions 6.88531
Ġof 0.16026658
ĠAfrican 4.7013235
-American 3.0099554
Ġcharacters 0.39849284
Ġon 5.9672875
-screen 3.0001905
Ġserve 4.794588
Ġas 0.71212065
Ġa 0.8369479
Ġreflection 4.895893
Ġof 0.122346565
Ġthe 1.0536238
Ġsentiments 7.752701
Ġof 0.3544262
Ġwhite 1.585642
Ġcharacters 1.9138446
Ġto 5.9299803
Ġsustain 10.3012705
Ġa 2.780354
Ġrestricted 9.480608
Ġview 3.2663736
Ġof 0.054919526
Ġthe 1.6971025
Ġdomain 10.103309
Ġof 1.938989
Ġwh 0.91421103
iten 4.6802244e-05
ess 0.0002509688
. 0.8894803
ĠConsequently 4.659828
, 0.005860413
Ġblack 3.552484
Ġcharacters 0.3981502
Ġevoke 8.610637
Ġthe 1.9489547
Ġviewer 4.8004894
’s 0.20039453
Ġsympathy 1.3125129
, 1.5963975
Ġgrounded 11.075526
Ġon 1.748924
Ġpity 6.885763
Ġfor 2.2358208
Ġthem 2.7435489
Ġin 4.2272882
Ġthese 5.0609465
Ġfilms 0.8379763
.Ċ 1.2537894
An 5.882687
Ġequally 5.928627
Ġnotable 3.648061
Ġillustration 5.267091
Ġis 1.3908644
Ġthe 1.2383919
Ġfilm 2.1954572
ĠGreen 8.24576
ĠBook 0.41040125
Ġhel 13.110275
med 0.021509819
Ġby 0.024601227
ĠPeter 0.43891847
ĠFare 13.744623
lli 2.5851436
. 0.99365056
ĠOne 6.24227
Ġof 0.63435805
Ġthe 0.20533109
Ġprotagonists 5.0441303
Ġis 1.1851863
Ġa 1.1062214
Ġblack 0.9115861
Ġpian 1.8595033
ist 0.00043424533
Ġwith 4.489973
Ġa 0.9161346
Ġconserv 10.896923
atory 0.11772202
Ġeducation 2.8721366
, 1.6687102
Ġrefined 10.798062
Ġmanners 1.6947174
, 0.11603689
Ġand 0.19106366
Ġpreferences 9.569978
. 1.3446542
ĠThe 1.6766154
Ġother 2.6532402
, 3.0944722
Ġwhite 2.07225
Ġof 8.442349
ĠItalian 3.9469793
Ġdescent 0.46472344
, 0.09561194
Ġconvers 9.55085
ely 2.2262855
, 0.57621336
Ġis 0.4825542
Ġvery 6.6015487
Ġuncomp 9.329727
licated 1.027506
Ġand 0.91975206
Ġforth 6.402458
right 0.002734382
, 1.699039
Ġalmost 6.2827964
Ġto 2.1123004
Ġthe 0.43722218
Ġpoint 0.21881945
Ġof 0.08383692
Ġimp 4.9567223
ol 0.89690304
iten 0.19824785
ess 6.706687e-05
. 0.23585252
ĠFor 5.1014767
ĠDon 9.176003
Ġto 9.06253
Ġgain 4.730349
Ġacceptance 3.0393279
Ġin 2.0218925
Ġsociety 3.4786553
, 0.23112783
Ġhe 0.5311011
Ġputs 8.435929
Ġin 2.6225715
Ġa 1.2258872
Ġtremendous 3.7886543
Ġamount 0.61665267
Ġof 0.009589514
Ġeffort 0.54949385
Ġon 4.8194
Ġhimself 4.0695114
. 1.188069
ĠSim 8.474114
ult 0.023234643
aneously 0.0039280797
, 0.022840189
Ġsocietal 11.668514
Ġnorms 2.5239737
Ġprevent 5.414898
Ġhim 0.63212943
Ġfrom 0.045739833
Ġleading 7.696577
Ġa 0.42059624
Ġtypical 4.625497
Ġlife 0.70057374
Ġfor 5.395195
Ġwhites 3.6603615
. 0.52395827
ĠConversely 6.876331
, 0.011962307
Ġdespite 5.426807
Ġhis 1.2629725
Ġnumerous 6.4540873
Ġflaws 2.75926
Ġand 2.1122632
Ġsomewhat 8.135941
Ġdisagree 7.2347918
able 0.01101422
Ġpersonality 1.6950272
, 0.04423794
ĠTony 6.277259
Ġis 1.0122538
Ġwell 4.312484
- 1.358281
liked 0.06974045
Ġin 3.3590522
Ġhis 1.59746
Ġcircle 3.8806171
.Ċ 3.6793509
Non 5.7568474
etheless 0.038102765
, 0.004668407
Ġthere 3.996441
Ġare 1.0450025
Ġfilms 3.902074
Ġwhere 1.5766636
Ġthe 1.578891
Ġdirectors 7.6352234
Ġoppose 8.560796
ĠHollywood 8.343596
Ġwh 5.8424993
iten 0.00024429336
ess 0.0005717404
. 1.0175631
ĠDespite 6.5372214
Ġsome 5.6014986
Ġc 8.675475
ensure 2.3381581
Ġof 2.375419
Ġacts 10.203033
Ġof 0.55460954
Ġunfair 8.326359
Ġracial 4.308845
Ġsub 6.2702007
jug 0.52170813
ation 0.006105712
, 0.54073536
ĠRyan 8.565307
ĠCo 0.45596474
og 0.00073994225
ler 0.0024300017
’s 0.26857334
ĠBlack 1.720579
ĠPanther 0.007740193
Ġ( 1.8439196
201 0.011871248
8 0.012664096
) 0.105324954
Ġis 1.8967113
Ġone 2.7484765
Ġsuch 1.6831937
Ġfilm 0.79717326
. 0.25673214
ĠThe 1.3683739
Ġmovie 2.5929573
Ġaims 7.2390018
Ġto 0.21814169
Ġfundamentally 9.086487
Ġdismantle 4.397653
Ġthe 0.60502446
Ġcore 8.160851
Ġrole 7.988131
Ġof 0.34080034
ĠHollywood 3.5774584
Ġas 2.7744317
Ġthe 1.6521592
Ġessence 9.013723
Ġof 0.047842506
Ġwh 0.9300344
iten 0.00015419374
ess 0.00018589824
Ġand 2.664138
Ġwhite 4.962425
Ġsupremacy 1.2766024
. 0.4627347
ĠCo 2.9930637
og 0.0028055832
ler 0.0019270902
’s 1.1626148
Ġwork 4.6526866
Ġappears 5.9177656
Ġto 0.39542812
Ġbe 0.9476654
Ġpredominantly 7.390071
Ġabout 2.5161755
Ġestablishing 5.8618593
Ġa 1.0728512
ĠBlack 3.8867779
ĠHollywood 6.6571054
Ġaesthetic 6.4813375
. 1.5338396
ĠHence 6.0806746
, 0.0637314
ĠBlack 3.2220213
ĠPanther 0.049110267
Ġraises 7.5411997
Ġthe 1.0129998
Ġissue 2.3661616
Ġof 0.07364093
Ġwhether 3.5605445
Ġa 2.9011188
Ġblack 1.9736867
Ġfilm 3.2484143
Ġcan 0.9582164
Ġbe 1.0461121
Ġa 2.619557
Ġblockbuster 3.9173946
Ġhit 4.4792767
. 1.3543482
