Introduction 7.783488
:Ċ 7.2452884
In 3.070342
Ġher 6.6872635
Ġthought 9.26836
-pro 0.28138107
v 0.0005862759
oking 0.0013213116
Ġbook 1.059383
, 0.6039069
Ġ" 5.1587276
The 1.5413631
ĠSum 8.587518
Ġof 0.3719189
ĠUs 1.4160129
: 0.9429087
ĠWhat 3.3204598
ĠRac 5.4113083
ism 0.0076020123
ĠCosts 0.48088342
ĠEveryone 2.5682971
Ġand 1.2885681
ĠHow 0.7212675
ĠWe 0.3408206
ĠCan 0.14096504
ĠProsper 3.9411669
ĠTogether 0.21663642
," 0.76012844
ĠHeather 6.4246807
ĠMcG 0.5944734
hee 0.033653535
Ġkeen 13.678455
ly 0.0010936655
Ġhighlights 4.3315935
Ġthe 0.32513207
Ġnegative 4.897912
Ġimpacts 2.4429407
Ġof 0.39638147
Ġthe 2.9605174
Ġprevalent 6.7142115
Ġ" 3.6146905
zero 6.0839143
-sum 0.42908278
" 0.4876192
Ġparadigm 4.224062
Ġin 1.9855555
Ġthe 1.5706931
ĠUnited 1.3192754
ĠStates 0.006755275
. 0.738899
ĠThis 3.0627842
Ġparadigm 0.8142053
, 1.8664508
Ġwhich 1.1117495
Ġperpet 6.3867664
uates 0.03508122
Ġthe 0.6643347
Ġbelief 2.1341724
Ġthat 0.04730349
Ġgains 4.134138
Ġfor 3.062501
Ġracial 7.049011
Ġminorities 0.63988155
Ġinherently 8.437427
Ġequ 4.068503
ate 0.16775377
Ġto 0.206636
Ġlosses 0.3175011
Ġfor 0.03941835
ĠWhite 4.9408507
ĠAmericans 0.5806603
, 0.07462229
Ġhas 1.7387902
Ġdetrimental 5.953536
Ġconsequences 1.5199139
Ġon 2.0523305
Ġour 2.9900095
Ġnation 2.6772873
's 0.5352909
Ġsocial 2.6805348
Ġfabric 1.9115136
Ġand 1.6227921
Ġeconomic 1.4906697
Ġwell 1.56536
-being 0.03599171
. 0.42046204
ĠThis 2.9942393
Ġessay 4.0232387
Ġwill 0.8735272
Ġdelve 4.8583016
Ġinto 0.33158198
Ġsome 2.8162417
Ġof 0.079342686
Ġthese 1.7870929
Ġdistress 11.133084
ing 0.0149538135
Ġeffects 1.7642754
Ġand 1.2729867
Ġshed 5.5098457
Ġlight 0.14094403
Ġon 0.052024372
Ġthe 1.0562001
Ġurgent 5.296526
Ġneed 0.09993746
Ġfor 0.4818143
Ġembracing 7.7579913
Ġunity 7.16926
Ġand 1.3136078
Ġfairness 5.0149393
Ġinstead 4.52377
.Ċ 1.9495615
Ali 11.820677
en 0.16018482
ation 0.22530681
Ġand 1.1081686
ĠIn 2.856629
equ 3.348316
ity 0.042309582
:Ċ 0.65604603
The 1.7511264
Ġzero 3.4638455
-sum 0.015419463
Ġparadigm 0.58351433
Ġfost 6.175285
ers 0.00027373302
Ġa 1.2440945
Ġsense 1.5295585
Ġof 0.0053113084
Ġalien 0.6302847
ation 0.0018844923
Ġand 0.5395442
Ġdivides 7.251933
Ġcommunities 3.8086271
Ġalong 1.7419063
Ġracial 0.26781538
Ġlines 0.35440415
. 0.41585127
ĠBy 4.707487
Ġp 7.160931
itting 0.002170009
Ġindividuals 3.6966727
Ġand 3.1008637
Ġgroups 0.5917002
Ġagainst 0.11151681
Ġeach 0.9084774
Ġother 0.007285019
, 0.31152853
Ġit 1.4672568
Ġexacerb 4.65639
ates 0.00026562717
Ġracial 2.5176148
Ġtensions 1.6304431
Ġand 0.5231656
Ġfost 3.326387
ers 4.048445e-05
Ġsegregation 6.039231
. 0.8085171
ĠSuch 5.2722225
Ġdivision 4.0154276
Ġnot 3.9545455
Ġonly 0.000768056
Ġh 4.2663727
amp 2.1142712
ers 1.3186812e-05
Ġsocial 2.7403142
Ġcohesion 1.2687249
Ġbut 1.5241888
Ġalso 0.36582348
Ġh 3.3600795
inders 0.27386877
Ġthe 1.6435894
Ġprogress 3.8676386
Ġtowards 3.5171158
Ġequal 4.376789
Ġopportunities 1.6128085
Ġfor 1.3471797
Ġall 0.44271535
ĠAmericans 2.045493
. 0.4334094
ĠThe 2.6430879
Ġfalse 7.879564
Ġnotion 2.3317163
Ġof 1.1824121
Ġa 1.7453547
Ġlimited 6.5846386
Ġeconomic 4.335479
Ġpie 0.70991397
Ġfalsely 10.784357
Ġleads 3.4693835
Ġindividuals 2.7813816
Ġto 0.38576543
Ġview 3.5007107
Ġpeople 5.7681966
Ġof 1.0453728
Ġdifferent 1.7937429
Ġracial 2.3592494
Ġbackgrounds 0.5888296
Ġas 0.16226907
Ġdirect 7.7569313
Ġcompetitors 0.28752258
Ġrather 2.4507513
Ġthan 0.006890135
Ġpotential 3.5398633
Ġallies 1.0532055
Ġand 3.3737323
Ġcontributors 5.0329022
Ġto 0.44741184
Ġoverall 5.5089273
Ġgrowth 2.7708426
.Ċ 1.7290146
E 4.881757
conomic 0.30035678
ĠDis 3.8636918
adv 3.8191464
antages 1.9568622
:Ċ 0.24916424
One 3.8747778
Ġof 0.29601613
Ġthe 0.015137
Ġmost 0.7777774
Ġsignificant 2.8193219
Ġnegative 2.4125469
Ġimpacts 1.2603326
Ġof 0.12388247
Ġthe 0.21993804
Ġzero 0.15681498
-sum 0.012119432
Ġparadigm 0.0988073
Ġis 0.16531527
Ġits 2.0653474
Ġhind 8.314156
rance 0.6306065
Ġto 1.1913112
Ġeconomic 1.1213728
Ġgrowth 1.2169815
. 0.47457087
ĠMcG 6.0364532
hee 0.00018125297
Ġapt 5.8754997
ly 0.00022153647
Ġpoints 2.3415723
Ġout 0.03616477
Ġthat 0.384746
Ġracism 5.6909914
, 3.1350694
Ġperpet 6.96533
uated 0.019724516
Ġby 0.5883684
Ġthis 5.4151373
Ġparadigm 0.36711115
, 0.03702569
Ġcosts 6.293434
Ġeveryone 3.374275
Ġdearly 5.6141534
. 0.69017804
ĠThe 2.4113925
Ġmisguided 7.919326
Ġbelief 0.63281566
Ġthat 0.16246781
Ġassisting 12.602682
Ġmarginalized 5.5459833
Ġcommunities 1.6684799
Ġwill 2.116453
Ġharm 4.6018944
Ġone 3.0754461
's 0.20037317
Ġown 0.4661752
Ġeconomic 1.1323
Ġinterests 2.1825335
Ġprevents 5.8935957
Ġthe 2.7897282
Ġimplementation 5.6173525
Ġof 0.026075589
Ġequitable 4.5288734
Ġpolicies 0.40585202
. 1.5549222
ĠThis 2.2558079
Ġnot 5.177231
Ġonly 0.0037618326
Ġstif 4.3862553
les 0.0007454256
Ġinnovation 3.5850534
Ġand 0.8306518
Ġmarket 6.860883
Ġdevelopment 2.8833237
Ġbut 0.5333972
Ġalso 0.16397704
Ġperpet 3.9051237
uates 0.0026613853
Ġincome 4.5997176
Ġinequality 0.60126764
Ġand 1.7269392
Ġlimits 5.200952
Ġoverall 3.8276126
Ġeconomic 0.7335348
Ġprosperity 3.2574384
Ġin 3.6150997
Ġthe 0.43048772
ĠUnited 0.8013017
ĠStates 0.0064741336
.Ċ 0.75561994
Under 6.352503
investment 3.0977716
Ġin 0.6134862
ĠPublic 3.9055018
ĠGoods 2.875853
:Ċ 0.21936116
The 1.6393573
Ġzero 0.63901895
-sum 0.006086753
Ġparadigm 0.16829735
Ġleads 4.0780993
Ġto 0.20394157
Ġthe 2.544732
Ġunder 0.06776918
investment 0.1061797
Ġin 0.38397506
Ġcrucial 5.7636538
Ġpublic 0.15015072
Ġgoods 0.04211256
Ġsuch 2.0268517
Ġas 0.003508607
Ġeducation 1.2378551
, 0.4467111
Ġhealthcare 1.1467772
, 0.1398457
Ġand 0.5794854
Ġinfrastructure 0.79866904
, 2.3374429
Ġresulting 4.1237006
Ġin 0.0061061825
Ġsub 4.713717
standard 1.5249869
Ġservices 1.5524967
Ġfor 1.186788
Ġall 1.1140294
Ġcitizens 2.5521085
. 0.24217135
ĠInstead 5.433319
Ġof 0.19545448
Ġrecognizing 6.7206597
Ġthat 2.3787122
Ġthese 2.7243478
Ġinvestments 3.2535868
Ġbenefit 3.8457975
Ġsociety 3.0618606
Ġas 0.27980587
Ġa 0.012537205
Ġwhole 0.0029830483
, 0.12925866
Ġthe 1.6920661
Ġparadigm 2.8750153
Ġperpet 3.7368507
uates 0.004097516
Ġthe 0.49521607
Ġidea 2.034995
Ġthat 0.061263792
Ġcertain 2.4741516
Ġracial 3.7958684
Ġgroups 0.34416297
Ġdisproportionately 6.3006277
Ġbenefit 0.5994306
Ġfrom 0.35173115
Ġsuch 1.4224143
Ġresources 2.9368658
. 0.69238704
ĠConsequently 4.115093
, 0.010703374
Ġeducation 7.8488197
Ġsystems 3.8278348
Ġsuffer 5.82049
, 1.44448
Ġhealthcare 2.8426878
Ġbecomes 3.1741683
Ġun 2.9555316
aff 0.045179866
ordable 0.0003160393
, 0.40549493
Ġand 0.04391343
Ġessential 5.5052395
Ġinfrastructure 0.38517958
Ġprojects 2.9557471
Ġremain 2.9987798
Ġneglected 4.1497517
, 2.9712925
Ġleading 2.35852
Ġto 0.022193769
Ġdiminished 5.00041
Ġopportunities 3.1783175
Ġand 1.8180425
Ġdecreased 4.685504
Ġquality 1.4447409
Ġof 0.041472666
Ġlife 0.028747106
Ġfor 0.6239776
Ġeveryone 2.70523
.Ċ 0.41770706
Political 4.534988
ĠPolar 2.912796
ization 0.008247294
:Ċ 0.11983815
Furthermore 5.7942247
, 0.0016819634
Ġthe 0.27187517
Ġzero 0.1449981
-sum 0.0038900997
Ġparadigm 0.07130029
Ġcontributes 3.3354127
Ġto 0.04155215
Ġheightened 5.956484
Ġpolitical 0.36848938
Ġpolarization 0.044356894
, 1.8547579
Ġas 2.6645436
Ġit 1.8168086
Ġbecomes 7.104904
Ġa 3.076961
Ġdivisive 3.8933067
Ġtool 2.222416
Ġexploited 9.703754
Ġby 0.15913899
Ġill 7.7785573
-int 1.2584069
ention 0.13292284
ed 0.00093337503
Ġpoliticians 1.278765
Ġwho 2.992462
Ġcapitalize 4.701824
Ġon 0.03060997
Ġracial 1.6908586
Ġfears 3.67833
Ġand 0.88250947
Ġresent 3.401736
ments 0.015480973
. 0.94402117
ĠBy 2.896637
Ġpromoting 3.8488452
Ġthis 4.050269
Ġflawed 4.5632486
Ġview 3.7378783
, 1.1211377
Ġpoliticians 1.3473358
Ġcan 3.3835955
Ġmanipulate 3.294425
Ġpublic 1.8765965
Ġopinion 0.89612865
Ġand 0.8564047
Ġinc 3.8716874
ite 0.0008477446
Ġanim 5.2088356
osity 0.03039793
, 2.8365211
Ġfurther 3.074228
Ġfract 6.2157564
uring 0.0001975802
Ġtrust 7.914857
Ġand 1.0842968
Ġcooperation 2.5384593
Ġwithin 2.8470106
Ġthe 1.7424448
ĠUnited 3.3630338
ĠStates 0.0045291
.Ċ 1.0603282
Conclusion 3.567729
:Ċ 0.10061854
He 5.2134895
ather 0.0018697367
ĠMcG 0.009817477
hee 0.0002937519
's 0.7539703
Ġbook 1.4643908
Ġ" 2.33892
The 0.0063275048
ĠSum 0.003250793
Ġof 0.0053446363
ĠUs 0.010385824
: 0.9496383
ĠWhat 0.0038290562
ĠRac 0.0049644085
ism 0.0003056686
ĠCosts 0.013615189
ĠEveryone 0.040938314
Ġand 0.047059685
ĠHow 0.012128151
ĠWe 0.012618541
ĠCan 0.017952316
ĠProsper 0.014877245
ĠTogether 0.0069171265
" 0.15574926
Ġpower 9.272295
fully 4.692145e-05
Ġelucid 4.676367
ates 0.0063488116
Ġthe 0.18632258
Ġnegative 1.7679847
Ġimpact 2.4525046
Ġthe 3.4256392
Ġzero 0.30333206
-sum 0.009226019
Ġparadigm 0.03880917
Ġhas 0.15352924
Ġon 0.08571475
Ġthe 1.2883267
ĠUnited 0.71353465
ĠStates 0.0056916387
. 0.5291614
ĠThe 1.9219509
Ġdivisions 12.388623
, 4.390041
Ġeconomic 4.9950733
Ġdisadvantages 1.869112
, 0.022524958
Ġunder 5.6237836
investment 0.055963077
Ġin 0.32760677
Ġpublic 0.19154727
Ġgoods 0.03564551
, 0.03971663
Ġand 0.23472749
Ġpolitical 0.20032293
Ġpolarization 0.036079798
Ġit 3.454196
Ġeng 2.4681783
enders 0.015861446
Ġimp 6.9423237
ede 0.048903342
Ġour 1.8798966
Ġnation 0.4348276
's 0.06704816
Ġprogress 1.2233965
Ġtowards 0.6417227
Ġunity 2.8743515
Ġand 0.20244582
Ġprosperity 3.8873086
. 0.24581784
ĠAs 2.677406
Ġa 1.4613067
Ġsociety 2.3701558
, 0.10530028
Ġwe 0.2599668
Ġmust 0.31010905
Ġrise 5.0672216
Ġabove 0.12991115
Ġthis 1.8358951
Ġflawed 2.7473085
Ġmindset 3.2066317
, 2.7748756
Ġrecognize 3.3294616
Ġthe 0.85075355
Ġimmense 4.5033755
Ġvalue 1.866251
Ġof 0.5753997
Ġshared 4.586231
Ġopportunity 4.475123
Ġand 1.1737504
Ġcollective 4.8423195
Ġinvestments 7.05648
, 0.19422886
Ġand 0.022529392
Ġwork 2.113595
Ġtowards 0.724112
Ġbuilding 2.6204906
Ġa 0.29856023
Ġmore 1.0524386
Ġequitable 1.0544939
Ġand 0.63359606
Ġinclusive 1.5659877
Ġfuture 2.0929081
Ġfor 1.1463346
Ġall 0.2230556
. 1.810842
